*HEADING
 CANTILEVER WITH A TIP MOMENT -  LARGE ROTATION  -  40 CPS4I     
*NODE
1, 0.,0.
2, 0.,0.1478
81, 10.,0.
82, 10.,0.1478
1001,0.,0.0739
*NGEN
1,81,2
2,82,2
*ELEMENT , TYPE=CPS4I, ELSET=BEAM
1, 1,3,4,2
*ELGEN,ELSET=BEAM
1, 40,2,1
*SOLID SECTION , ELSET=BEAM, MATERIAL=MATE1
0.1, 
*MATERIAL,NAME=MATE1
*ELASTIC
1.E8, 
*SURFACE, NAME=NODE_BASED_SURFACE, TYPE=NODE
1, 1.0
2, 1.0
*COUPLING, CONSTRAINT NAME=COUPLING_DEFINITION, REF NODE=1001, SURFACE=NODE_BASED_SURFACE
*DISTRIBUTING
*BOUNDARY
81,1,2
82,1,2
*RESTART,WRITE,FREQUENCY=5
*STEP,NLGEOM,INC=100, UNSYMM=YES
*STATIC
0.05 ,     1.0 
*CLOAD
1001,6,-3384.7808
*CONTROLS, PARAMETERS=FIELD

,0.0,
*NODE PRINT, FREQUENCY=5
U,
RF,
CF, 
*EL PRINT, FREQUENCY=5
*NODE FILE, FREQUENCY=5
U,
RF,
CF, 
*ELSET, ELSET=ENDS
 1, 40
*EL FILE, ELSET=ENDS, FREQUENCY=6
E,NE,LE
EP,NEP,LEP
** *EL FILE, ELSET=ENDMOMENT, FREQUENCY=6
** NFORC,
*END STEP                                          
