*HEADING
 TIP LOADED CANTILEVER  -  LARGE ROTATION  - 20 CPS4I        
*NODE
1, 0.,0.
201, 0.,0.1478
21, 10.,0.
221, 10.,0.1478
1001,0.,0.0739
*NGEN
1,21
201,221
*ELEMENT, TYPE=CPS4I, ELSET=BEAM
1, 1,2,202,201
*ELGEN,ELSET=BEAM
1, 20,1,1
*SOLID SECTION , ELSET=BEAM, MATERIAL=MATE1
0.1, 
*MATERIAL,NAME=MATE1
*ELASTIC
1.E8, 
** *ELEMENT,TYPE=DCOUP2D,ELSET=TIPLOAD
** 1001,1001
** *DISTRIBUTING COUPLING, ELSET=TIPLOAD
** 1,1.0
** 2,1.0
*SURFACE, NAME=NODE_BASED_SURFACE, TYPE=NODE
1, 1.0
2, 1.0
*COUPLING, CONSTRAINT NAME=COUPLING_DEFINITION, REF NODE=1001, SURFACE=NODE_BASED_SURFACE
*DISTRIBUTING
*BOUNDARY
21,1,2
221,1,2
*RESTART,WRITE,FREQUENCY=2
*STEP , NLGEOM      ,INC=25
LARGE ROTATION ANALYSIS
*STATIC
0.05 ,     1.0  
*CLOAD
1001,2,269.35
*ENERGY PRINT,FREQUENCY=5
*NODE PRINT,FREQUENCY=5
U,RF,CF
*EL PRINT,FREQUENCY=5
S,E 
*NODE FILE,FREQUENCY=5
U,RF,CF
*ELSET, ELSET=ENDS
 1, 20
*EL FILE,ELSET=ENDS,FREQUENCY=6
E,NE,LE
EP,NEP,LEP
** *EL FILE, ELSET=TIPLOAD
** NFORC,
*END STEP                                          
