**
** ex12_rigid_plate_display_fold.inp
** 90-degree folding with rigid plate + surface tie (High-Fidelity Mesh)
**
*HEADING
Display folding with rigid plate and tie constraints
**
*NODE
1, -40.000000, 0.000000
2, -39.875000, 0.000000
3, -39.750000, 0.000000
4, -39.625000, 0.000000
5, -39.500000, 0.000000
6, -39.375000, 0.000000
7, -39.250000, 0.000000
8, -39.125000, 0.000000
9, -39.000000, 0.000000
10, -38.875000, 0.000000
11, -38.750000, 0.000000
12, -38.625000, 0.000000
13, -38.500000, 0.000000
14, -38.375000, 0.000000
15, -38.250000, 0.000000
16, -38.125000, 0.000000
17, -38.000000, 0.000000
18, -37.500000, 0.000000
19, -37.000000, 0.000000
20, -36.500000, 0.000000
21, -36.000000, 0.000000
22, -35.500000, 0.000000
23, -35.000000, 0.000000
24, -34.500000, 0.000000
25, -34.000000, 0.000000
26, -33.500000, 0.000000
27, -33.000000, 0.000000
28, -32.500000, 0.000000
29, -32.000000, 0.000000
30, -31.500000, 0.000000
31, -31.000000, 0.000000
32, -30.500000, 0.000000
33, -30.000000, 0.000000
34, -29.500000, 0.000000
35, -29.000000, 0.000000
36, -28.500000, 0.000000
37, -28.000000, 0.000000
38, -27.500000, 0.000000
39, -27.000000, 0.000000
40, -26.500000, 0.000000
41, -26.000000, 0.000000
42, -25.500000, 0.000000
43, -25.000000, 0.000000
44, -24.500000, 0.000000
45, -24.000000, 0.000000
46, -23.500000, 0.000000
47, -23.000000, 0.000000
48, -22.500000, 0.000000
49, -22.000000, 0.000000
50, -21.500000, 0.000000
51, -21.000000, 0.000000
52, -20.500000, 0.000000
53, -20.000000, 0.000000
54, -19.500000, 0.000000
55, -19.000000, 0.000000
56, -18.500000, 0.000000
57, -18.000000, 0.000000
58, -17.500000, 0.000000
59, -17.000000, 0.000000
60, -16.500000, 0.000000
61, -16.000000, 0.000000
62, -15.500000, 0.000000
63, -15.000000, 0.000000
64, -14.500000, 0.000000
65, -14.000000, 0.000000
66, -13.500000, 0.000000
67, -13.000000, 0.000000
68, -12.500000, 0.000000
69, -12.000000, 0.000000
70, -11.500000, 0.000000
71, -11.000000, 0.000000
72, -10.500000, 0.000000
73, -10.000000, 0.000000
74, -9.875000, 0.000000
75, -9.750000, 0.000000
76, -9.625000, 0.000000
77, -9.500000, 0.000000
78, -9.375000, 0.000000
79, -9.250000, 0.000000
80, -9.125000, 0.000000
81, -9.000000, 0.000000
82, -8.875000, 0.000000
83, -8.750000, 0.000000
84, -8.625000, 0.000000
85, -8.500000, 0.000000
86, -8.375000, 0.000000
87, -8.250000, 0.000000
88, -8.125000, 0.000000
89, -8.000000, 0.000000
90, -7.750000, 0.000000
91, -7.500000, 0.000000
92, -7.250000, 0.000000
93, -7.000000, 0.000000
94, -6.750000, 0.000000
95, -6.500000, 0.000000
96, -6.250000, 0.000000
97, -6.000000, 0.000000
98, -5.750000, 0.000000
99, -5.500000, 0.000000
100, -5.250000, 0.000000
101, -5.000000, 0.000000
102, -4.750000, 0.000000
103, -4.500000, 0.000000
104, -4.250000, 0.000000
105, -4.000000, 0.000000
106, -3.750000, 0.000000
107, -3.500000, 0.000000
108, -3.250000, 0.000000
109, -3.000000, 0.000000
110, -2.750000, 0.000000
111, -2.500000, 0.000000
112, -2.250000, 0.000000
113, -2.000000, 0.000000
114, -1.750000, 0.000000
115, -1.500000, 0.000000
116, -1.250000, 0.000000
117, -1.000000, 0.000000
118, -0.750000, 0.000000
119, -0.500000, 0.000000
120, -0.250000, 0.000000
121, 0.000000, 0.000000
122, 0.250000, 0.000000
123, 0.500000, 0.000000
124, 0.750000, 0.000000
125, 1.000000, 0.000000
126, 1.250000, 0.000000
127, 1.500000, 0.000000
128, 1.750000, 0.000000
129, 2.000000, 0.000000
130, 2.250000, 0.000000
131, 2.500000, 0.000000
132, 2.750000, 0.000000
133, 3.000000, 0.000000
134, 3.250000, 0.000000
135, 3.500000, 0.000000
136, 3.750000, 0.000000
137, 4.000000, 0.000000
138, 4.250000, 0.000000
139, 4.500000, 0.000000
140, 4.750000, 0.000000
141, 5.000000, 0.000000
142, 5.250000, 0.000000
143, 5.500000, 0.000000
144, 5.750000, 0.000000
145, 6.000000, 0.000000
146, 6.250000, 0.000000
147, 6.500000, 0.000000
148, 6.750000, 0.000000
149, 7.000000, 0.000000
150, 7.250000, 0.000000
151, 7.500000, 0.000000
152, 7.750000, 0.000000
153, 8.000000, 0.000000
154, 8.125000, 0.000000
155, 8.250000, 0.000000
156, 8.375000, 0.000000
157, 8.500000, 0.000000
158, 8.625000, 0.000000
159, 8.750000, 0.000000
160, 8.875000, 0.000000
161, 9.000000, 0.000000
162, 9.125000, 0.000000
163, 9.250000, 0.000000
164, 9.375000, 0.000000
165, 9.500000, 0.000000
166, 9.625000, 0.000000
167, 9.750000, 0.000000
168, 9.875000, 0.000000
169, 10.000000, 0.000000
170, 10.500000, 0.000000
171, 11.000000, 0.000000
172, 11.500000, 0.000000
173, 12.000000, 0.000000
174, 12.500000, 0.000000
175, 13.000000, 0.000000
176, 13.500000, 0.000000
177, 14.000000, 0.000000
178, 14.500000, 0.000000
179, 15.000000, 0.000000
180, 15.500000, 0.000000
181, 16.000000, 0.000000
182, 16.500000, 0.000000
183, 17.000000, 0.000000
184, 17.500000, 0.000000
185, 18.000000, 0.000000
186, 18.500000, 0.000000
187, 19.000000, 0.000000
188, 19.500000, 0.000000
189, 20.000000, 0.000000
190, 20.500000, 0.000000
191, 21.000000, 0.000000
192, 21.500000, 0.000000
193, 22.000000, 0.000000
194, 22.500000, 0.000000
195, 23.000000, 0.000000
196, 23.500000, 0.000000
197, 24.000000, 0.000000
198, 24.500000, 0.000000
199, 25.000000, 0.000000
200, 25.500000, 0.000000
201, 26.000000, 0.000000
202, 26.500000, 0.000000
203, 27.000000, 0.000000
204, 27.500000, 0.000000
205, 28.000000, 0.000000
206, 28.500000, 0.000000
207, 29.000000, 0.000000
208, 29.500000, 0.000000
209, 30.000000, 0.000000
210, 30.500000, 0.000000
211, 31.000000, 0.000000
212, 31.500000, 0.000000
213, 32.000000, 0.000000
214, 32.500000, 0.000000
215, 33.000000, 0.000000
216, 33.500000, 0.000000
217, 34.000000, 0.000000
218, 34.500000, 0.000000
219, 35.000000, 0.000000
220, 35.500000, 0.000000
221, 36.000000, 0.000000
222, 36.500000, 0.000000
223, 37.000000, 0.000000
224, 37.500000, 0.000000
225, 38.000000, 0.000000
226, 38.125000, 0.000000
227, 38.250000, 0.000000
228, 38.375000, 0.000000
229, 38.500000, 0.000000
230, 38.625000, 0.000000
231, 38.750000, 0.000000
232, 38.875000, 0.000000
233, 39.000000, 0.000000
234, 39.125000, 0.000000
235, 39.250000, 0.000000
236, 39.375000, 0.000000
237, 39.500000, 0.000000
238, 39.625000, 0.000000
239, 39.750000, 0.000000
240, 39.875000, 0.000000
241, 40.000000, 0.000000
242, -40.000000, 0.030000
243, -39.875000, 0.030000
244, -39.750000, 0.030000
245, -39.625000, 0.030000
246, -39.500000, 0.030000
247, -39.375000, 0.030000
248, -39.250000, 0.030000
249, -39.125000, 0.030000
250, -39.000000, 0.030000
251, -38.875000, 0.030000
252, -38.750000, 0.030000
253, -38.625000, 0.030000
254, -38.500000, 0.030000
255, -38.375000, 0.030000
256, -38.250000, 0.030000
257, -38.125000, 0.030000
258, -38.000000, 0.030000
259, -37.500000, 0.030000
260, -37.000000, 0.030000
261, -36.500000, 0.030000
262, -36.000000, 0.030000
263, -35.500000, 0.030000
264, -35.000000, 0.030000
265, -34.500000, 0.030000
266, -34.000000, 0.030000
267, -33.500000, 0.030000
268, -33.000000, 0.030000
269, -32.500000, 0.030000
270, -32.000000, 0.030000
271, -31.500000, 0.030000
272, -31.000000, 0.030000
273, -30.500000, 0.030000
274, -30.000000, 0.030000
275, -29.500000, 0.030000
276, -29.000000, 0.030000
277, -28.500000, 0.030000
278, -28.000000, 0.030000
279, -27.500000, 0.030000
280, -27.000000, 0.030000
281, -26.500000, 0.030000
282, -26.000000, 0.030000
283, -25.500000, 0.030000
284, -25.000000, 0.030000
285, -24.500000, 0.030000
286, -24.000000, 0.030000
287, -23.500000, 0.030000
288, -23.000000, 0.030000
289, -22.500000, 0.030000
290, -22.000000, 0.030000
291, -21.500000, 0.030000
292, -21.000000, 0.030000
293, -20.500000, 0.030000
294, -20.000000, 0.030000
295, -19.500000, 0.030000
296, -19.000000, 0.030000
297, -18.500000, 0.030000
298, -18.000000, 0.030000
299, -17.500000, 0.030000
300, -17.000000, 0.030000
301, -16.500000, 0.030000
302, -16.000000, 0.030000
303, -15.500000, 0.030000
304, -15.000000, 0.030000
305, -14.500000, 0.030000
306, -14.000000, 0.030000
307, -13.500000, 0.030000
308, -13.000000, 0.030000
309, -12.500000, 0.030000
310, -12.000000, 0.030000
311, -11.500000, 0.030000
312, -11.000000, 0.030000
313, -10.500000, 0.030000
314, -10.000000, 0.030000
315, -9.875000, 0.030000
316, -9.750000, 0.030000
317, -9.625000, 0.030000
318, -9.500000, 0.030000
319, -9.375000, 0.030000
320, -9.250000, 0.030000
321, -9.125000, 0.030000
322, -9.000000, 0.030000
323, -8.875000, 0.030000
324, -8.750000, 0.030000
325, -8.625000, 0.030000
326, -8.500000, 0.030000
327, -8.375000, 0.030000
328, -8.250000, 0.030000
329, -8.125000, 0.030000
330, -8.000000, 0.030000
331, -7.750000, 0.030000
332, -7.500000, 0.030000
333, -7.250000, 0.030000
334, -7.000000, 0.030000
335, -6.750000, 0.030000
336, -6.500000, 0.030000
337, -6.250000, 0.030000
338, -6.000000, 0.030000
339, -5.750000, 0.030000
340, -5.500000, 0.030000
341, -5.250000, 0.030000
342, -5.000000, 0.030000
343, -4.750000, 0.030000
344, -4.500000, 0.030000
345, -4.250000, 0.030000
346, -4.000000, 0.030000
347, -3.750000, 0.030000
348, -3.500000, 0.030000
349, -3.250000, 0.030000
350, -3.000000, 0.030000
351, -2.750000, 0.030000
352, -2.500000, 0.030000
353, -2.250000, 0.030000
354, -2.000000, 0.030000
355, -1.750000, 0.030000
356, -1.500000, 0.030000
357, -1.250000, 0.030000
358, -1.000000, 0.030000
359, -0.750000, 0.030000
360, -0.500000, 0.030000
361, -0.250000, 0.030000
362, 0.000000, 0.030000
363, 0.250000, 0.030000
364, 0.500000, 0.030000
365, 0.750000, 0.030000
366, 1.000000, 0.030000
367, 1.250000, 0.030000
368, 1.500000, 0.030000
369, 1.750000, 0.030000
370, 2.000000, 0.030000
371, 2.250000, 0.030000
372, 2.500000, 0.030000
373, 2.750000, 0.030000
374, 3.000000, 0.030000
375, 3.250000, 0.030000
376, 3.500000, 0.030000
377, 3.750000, 0.030000
378, 4.000000, 0.030000
379, 4.250000, 0.030000
380, 4.500000, 0.030000
381, 4.750000, 0.030000
382, 5.000000, 0.030000
383, 5.250000, 0.030000
384, 5.500000, 0.030000
385, 5.750000, 0.030000
386, 6.000000, 0.030000
387, 6.250000, 0.030000
388, 6.500000, 0.030000
389, 6.750000, 0.030000
390, 7.000000, 0.030000
391, 7.250000, 0.030000
392, 7.500000, 0.030000
393, 7.750000, 0.030000
394, 8.000000, 0.030000
395, 8.125000, 0.030000
396, 8.250000, 0.030000
397, 8.375000, 0.030000
398, 8.500000, 0.030000
399, 8.625000, 0.030000
400, 8.750000, 0.030000
401, 8.875000, 0.030000
402, 9.000000, 0.030000
403, 9.125000, 0.030000
404, 9.250000, 0.030000
405, 9.375000, 0.030000
406, 9.500000, 0.030000
407, 9.625000, 0.030000
408, 9.750000, 0.030000
409, 9.875000, 0.030000
410, 10.000000, 0.030000
411, 10.500000, 0.030000
412, 11.000000, 0.030000
413, 11.500000, 0.030000
414, 12.000000, 0.030000
415, 12.500000, 0.030000
416, 13.000000, 0.030000
417, 13.500000, 0.030000
418, 14.000000, 0.030000
419, 14.500000, 0.030000
420, 15.000000, 0.030000
421, 15.500000, 0.030000
422, 16.000000, 0.030000
423, 16.500000, 0.030000
424, 17.000000, 0.030000
425, 17.500000, 0.030000
426, 18.000000, 0.030000
427, 18.500000, 0.030000
428, 19.000000, 0.030000
429, 19.500000, 0.030000
430, 20.000000, 0.030000
431, 20.500000, 0.030000
432, 21.000000, 0.030000
433, 21.500000, 0.030000
434, 22.000000, 0.030000
435, 22.500000, 0.030000
436, 23.000000, 0.030000
437, 23.500000, 0.030000
438, 24.000000, 0.030000
439, 24.500000, 0.030000
440, 25.000000, 0.030000
441, 25.500000, 0.030000
442, 26.000000, 0.030000
443, 26.500000, 0.030000
444, 27.000000, 0.030000
445, 27.500000, 0.030000
446, 28.000000, 0.030000
447, 28.500000, 0.030000
448, 29.000000, 0.030000
449, 29.500000, 0.030000
450, 30.000000, 0.030000
451, 30.500000, 0.030000
452, 31.000000, 0.030000
453, 31.500000, 0.030000
454, 32.000000, 0.030000
455, 32.500000, 0.030000
456, 33.000000, 0.030000
457, 33.500000, 0.030000
458, 34.000000, 0.030000
459, 34.500000, 0.030000
460, 35.000000, 0.030000
461, 35.500000, 0.030000
462, 36.000000, 0.030000
463, 36.500000, 0.030000
464, 37.000000, 0.030000
465, 37.500000, 0.030000
466, 38.000000, 0.030000
467, 38.125000, 0.030000
468, 38.250000, 0.030000
469, 38.375000, 0.030000
470, 38.500000, 0.030000
471, 38.625000, 0.030000
472, 38.750000, 0.030000
473, 38.875000, 0.030000
474, 39.000000, 0.030000
475, 39.125000, 0.030000
476, 39.250000, 0.030000
477, 39.375000, 0.030000
478, 39.500000, 0.030000
479, 39.625000, 0.030000
480, 39.750000, 0.030000
481, 39.875000, 0.030000
482, 40.000000, 0.030000
483, -40.000000, 0.046667
484, -39.875000, 0.046667
485, -39.750000, 0.046667
486, -39.625000, 0.046667
487, -39.500000, 0.046667
488, -39.375000, 0.046667
489, -39.250000, 0.046667
490, -39.125000, 0.046667
491, -39.000000, 0.046667
492, -38.875000, 0.046667
493, -38.750000, 0.046667
494, -38.625000, 0.046667
495, -38.500000, 0.046667
496, -38.375000, 0.046667
497, -38.250000, 0.046667
498, -38.125000, 0.046667
499, -38.000000, 0.046667
500, -37.500000, 0.046667
501, -37.000000, 0.046667
502, -36.500000, 0.046667
503, -36.000000, 0.046667
504, -35.500000, 0.046667
505, -35.000000, 0.046667
506, -34.500000, 0.046667
507, -34.000000, 0.046667
508, -33.500000, 0.046667
509, -33.000000, 0.046667
510, -32.500000, 0.046667
511, -32.000000, 0.046667
512, -31.500000, 0.046667
513, -31.000000, 0.046667
514, -30.500000, 0.046667
515, -30.000000, 0.046667
516, -29.500000, 0.046667
517, -29.000000, 0.046667
518, -28.500000, 0.046667
519, -28.000000, 0.046667
520, -27.500000, 0.046667
521, -27.000000, 0.046667
522, -26.500000, 0.046667
523, -26.000000, 0.046667
524, -25.500000, 0.046667
525, -25.000000, 0.046667
526, -24.500000, 0.046667
527, -24.000000, 0.046667
528, -23.500000, 0.046667
529, -23.000000, 0.046667
530, -22.500000, 0.046667
531, -22.000000, 0.046667
532, -21.500000, 0.046667
533, -21.000000, 0.046667
534, -20.500000, 0.046667
535, -20.000000, 0.046667
536, -19.500000, 0.046667
537, -19.000000, 0.046667
538, -18.500000, 0.046667
539, -18.000000, 0.046667
540, -17.500000, 0.046667
541, -17.000000, 0.046667
542, -16.500000, 0.046667
543, -16.000000, 0.046667
544, -15.500000, 0.046667
545, -15.000000, 0.046667
546, -14.500000, 0.046667
547, -14.000000, 0.046667
548, -13.500000, 0.046667
549, -13.000000, 0.046667
550, -12.500000, 0.046667
551, -12.000000, 0.046667
552, -11.500000, 0.046667
553, -11.000000, 0.046667
554, -10.500000, 0.046667
555, -10.000000, 0.046667
556, -9.875000, 0.046667
557, -9.750000, 0.046667
558, -9.625000, 0.046667
559, -9.500000, 0.046667
560, -9.375000, 0.046667
561, -9.250000, 0.046667
562, -9.125000, 0.046667
563, -9.000000, 0.046667
564, -8.875000, 0.046667
565, -8.750000, 0.046667
566, -8.625000, 0.046667
567, -8.500000, 0.046667
568, -8.375000, 0.046667
569, -8.250000, 0.046667
570, -8.125000, 0.046667
571, -8.000000, 0.046667
572, -7.750000, 0.046667
573, -7.500000, 0.046667
574, -7.250000, 0.046667
575, -7.000000, 0.046667
576, -6.750000, 0.046667
577, -6.500000, 0.046667
578, -6.250000, 0.046667
579, -6.000000, 0.046667
580, -5.750000, 0.046667
581, -5.500000, 0.046667
582, -5.250000, 0.046667
583, -5.000000, 0.046667
584, -4.750000, 0.046667
585, -4.500000, 0.046667
586, -4.250000, 0.046667
587, -4.000000, 0.046667
588, -3.750000, 0.046667
589, -3.500000, 0.046667
590, -3.250000, 0.046667
591, -3.000000, 0.046667
592, -2.750000, 0.046667
593, -2.500000, 0.046667
594, -2.250000, 0.046667
595, -2.000000, 0.046667
596, -1.750000, 0.046667
597, -1.500000, 0.046667
598, -1.250000, 0.046667
599, -1.000000, 0.046667
600, -0.750000, 0.046667
601, -0.500000, 0.046667
602, -0.250000, 0.046667
603, 0.000000, 0.046667
604, 0.250000, 0.046667
605, 0.500000, 0.046667
606, 0.750000, 0.046667
607, 1.000000, 0.046667
608, 1.250000, 0.046667
609, 1.500000, 0.046667
610, 1.750000, 0.046667
611, 2.000000, 0.046667
612, 2.250000, 0.046667
613, 2.500000, 0.046667
614, 2.750000, 0.046667
615, 3.000000, 0.046667
616, 3.250000, 0.046667
617, 3.500000, 0.046667
618, 3.750000, 0.046667
619, 4.000000, 0.046667
620, 4.250000, 0.046667
621, 4.500000, 0.046667
622, 4.750000, 0.046667
623, 5.000000, 0.046667
624, 5.250000, 0.046667
625, 5.500000, 0.046667
626, 5.750000, 0.046667
627, 6.000000, 0.046667
628, 6.250000, 0.046667
629, 6.500000, 0.046667
630, 6.750000, 0.046667
631, 7.000000, 0.046667
632, 7.250000, 0.046667
633, 7.500000, 0.046667
634, 7.750000, 0.046667
635, 8.000000, 0.046667
636, 8.125000, 0.046667
637, 8.250000, 0.046667
638, 8.375000, 0.046667
639, 8.500000, 0.046667
640, 8.625000, 0.046667
641, 8.750000, 0.046667
642, 8.875000, 0.046667
643, 9.000000, 0.046667
644, 9.125000, 0.046667
645, 9.250000, 0.046667
646, 9.375000, 0.046667
647, 9.500000, 0.046667
648, 9.625000, 0.046667
649, 9.750000, 0.046667
650, 9.875000, 0.046667
651, 10.000000, 0.046667
652, 10.500000, 0.046667
653, 11.000000, 0.046667
654, 11.500000, 0.046667
655, 12.000000, 0.046667
656, 12.500000, 0.046667
657, 13.000000, 0.046667
658, 13.500000, 0.046667
659, 14.000000, 0.046667
660, 14.500000, 0.046667
661, 15.000000, 0.046667
662, 15.500000, 0.046667
663, 16.000000, 0.046667
664, 16.500000, 0.046667
665, 17.000000, 0.046667
666, 17.500000, 0.046667
667, 18.000000, 0.046667
668, 18.500000, 0.046667
669, 19.000000, 0.046667
670, 19.500000, 0.046667
671, 20.000000, 0.046667
672, 20.500000, 0.046667
673, 21.000000, 0.046667
674, 21.500000, 0.046667
675, 22.000000, 0.046667
676, 22.500000, 0.046667
677, 23.000000, 0.046667
678, 23.500000, 0.046667
679, 24.000000, 0.046667
680, 24.500000, 0.046667
681, 25.000000, 0.046667
682, 25.500000, 0.046667
683, 26.000000, 0.046667
684, 26.500000, 0.046667
685, 27.000000, 0.046667
686, 27.500000, 0.046667
687, 28.000000, 0.046667
688, 28.500000, 0.046667
689, 29.000000, 0.046667
690, 29.500000, 0.046667
691, 30.000000, 0.046667
692, 30.500000, 0.046667
693, 31.000000, 0.046667
694, 31.500000, 0.046667
695, 32.000000, 0.046667
696, 32.500000, 0.046667
697, 33.000000, 0.046667
698, 33.500000, 0.046667
699, 34.000000, 0.046667
700, 34.500000, 0.046667
701, 35.000000, 0.046667
702, 35.500000, 0.046667
703, 36.000000, 0.046667
704, 36.500000, 0.046667
705, 37.000000, 0.046667
706, 37.500000, 0.046667
707, 38.000000, 0.046667
708, 38.125000, 0.046667
709, 38.250000, 0.046667
710, 38.375000, 0.046667
711, 38.500000, 0.046667
712, 38.625000, 0.046667
713, 38.750000, 0.046667
714, 38.875000, 0.046667
715, 39.000000, 0.046667
716, 39.125000, 0.046667
717, 39.250000, 0.046667
718, 39.375000, 0.046667
719, 39.500000, 0.046667
720, 39.625000, 0.046667
721, 39.750000, 0.046667
722, 39.875000, 0.046667
723, 40.000000, 0.046667
724, -40.000000, 0.063333
725, -39.875000, 0.063333
726, -39.750000, 0.063333
727, -39.625000, 0.063333
728, -39.500000, 0.063333
729, -39.375000, 0.063333
730, -39.250000, 0.063333
731, -39.125000, 0.063333
732, -39.000000, 0.063333
733, -38.875000, 0.063333
734, -38.750000, 0.063333
735, -38.625000, 0.063333
736, -38.500000, 0.063333
737, -38.375000, 0.063333
738, -38.250000, 0.063333
739, -38.125000, 0.063333
740, -38.000000, 0.063333
741, -37.500000, 0.063333
742, -37.000000, 0.063333
743, -36.500000, 0.063333
744, -36.000000, 0.063333
745, -35.500000, 0.063333
746, -35.000000, 0.063333
747, -34.500000, 0.063333
748, -34.000000, 0.063333
749, -33.500000, 0.063333
750, -33.000000, 0.063333
751, -32.500000, 0.063333
752, -32.000000, 0.063333
753, -31.500000, 0.063333
754, -31.000000, 0.063333
755, -30.500000, 0.063333
756, -30.000000, 0.063333
757, -29.500000, 0.063333
758, -29.000000, 0.063333
759, -28.500000, 0.063333
760, -28.000000, 0.063333
761, -27.500000, 0.063333
762, -27.000000, 0.063333
763, -26.500000, 0.063333
764, -26.000000, 0.063333
765, -25.500000, 0.063333
766, -25.000000, 0.063333
767, -24.500000, 0.063333
768, -24.000000, 0.063333
769, -23.500000, 0.063333
770, -23.000000, 0.063333
771, -22.500000, 0.063333
772, -22.000000, 0.063333
773, -21.500000, 0.063333
774, -21.000000, 0.063333
775, -20.500000, 0.063333
776, -20.000000, 0.063333
777, -19.500000, 0.063333
778, -19.000000, 0.063333
779, -18.500000, 0.063333
780, -18.000000, 0.063333
781, -17.500000, 0.063333
782, -17.000000, 0.063333
783, -16.500000, 0.063333
784, -16.000000, 0.063333
785, -15.500000, 0.063333
786, -15.000000, 0.063333
787, -14.500000, 0.063333
788, -14.000000, 0.063333
789, -13.500000, 0.063333
790, -13.000000, 0.063333
791, -12.500000, 0.063333
792, -12.000000, 0.063333
793, -11.500000, 0.063333
794, -11.000000, 0.063333
795, -10.500000, 0.063333
796, -10.000000, 0.063333
797, -9.875000, 0.063333
798, -9.750000, 0.063333
799, -9.625000, 0.063333
800, -9.500000, 0.063333
801, -9.375000, 0.063333
802, -9.250000, 0.063333
803, -9.125000, 0.063333
804, -9.000000, 0.063333
805, -8.875000, 0.063333
806, -8.750000, 0.063333
807, -8.625000, 0.063333
808, -8.500000, 0.063333
809, -8.375000, 0.063333
810, -8.250000, 0.063333
811, -8.125000, 0.063333
812, -8.000000, 0.063333
813, -7.750000, 0.063333
814, -7.500000, 0.063333
815, -7.250000, 0.063333
816, -7.000000, 0.063333
817, -6.750000, 0.063333
818, -6.500000, 0.063333
819, -6.250000, 0.063333
820, -6.000000, 0.063333
821, -5.750000, 0.063333
822, -5.500000, 0.063333
823, -5.250000, 0.063333
824, -5.000000, 0.063333
825, -4.750000, 0.063333
826, -4.500000, 0.063333
827, -4.250000, 0.063333
828, -4.000000, 0.063333
829, -3.750000, 0.063333
830, -3.500000, 0.063333
831, -3.250000, 0.063333
832, -3.000000, 0.063333
833, -2.750000, 0.063333
834, -2.500000, 0.063333
835, -2.250000, 0.063333
836, -2.000000, 0.063333
837, -1.750000, 0.063333
838, -1.500000, 0.063333
839, -1.250000, 0.063333
840, -1.000000, 0.063333
841, -0.750000, 0.063333
842, -0.500000, 0.063333
843, -0.250000, 0.063333
844, 0.000000, 0.063333
845, 0.250000, 0.063333
846, 0.500000, 0.063333
847, 0.750000, 0.063333
848, 1.000000, 0.063333
849, 1.250000, 0.063333
850, 1.500000, 0.063333
851, 1.750000, 0.063333
852, 2.000000, 0.063333
853, 2.250000, 0.063333
854, 2.500000, 0.063333
855, 2.750000, 0.063333
856, 3.000000, 0.063333
857, 3.250000, 0.063333
858, 3.500000, 0.063333
859, 3.750000, 0.063333
860, 4.000000, 0.063333
861, 4.250000, 0.063333
862, 4.500000, 0.063333
863, 4.750000, 0.063333
864, 5.000000, 0.063333
865, 5.250000, 0.063333
866, 5.500000, 0.063333
867, 5.750000, 0.063333
868, 6.000000, 0.063333
869, 6.250000, 0.063333
870, 6.500000, 0.063333
871, 6.750000, 0.063333
872, 7.000000, 0.063333
873, 7.250000, 0.063333
874, 7.500000, 0.063333
875, 7.750000, 0.063333
876, 8.000000, 0.063333
877, 8.125000, 0.063333
878, 8.250000, 0.063333
879, 8.375000, 0.063333
880, 8.500000, 0.063333
881, 8.625000, 0.063333
882, 8.750000, 0.063333
883, 8.875000, 0.063333
884, 9.000000, 0.063333
885, 9.125000, 0.063333
886, 9.250000, 0.063333
887, 9.375000, 0.063333
888, 9.500000, 0.063333
889, 9.625000, 0.063333
890, 9.750000, 0.063333
891, 9.875000, 0.063333
892, 10.000000, 0.063333
893, 10.500000, 0.063333
894, 11.000000, 0.063333
895, 11.500000, 0.063333
896, 12.000000, 0.063333
897, 12.500000, 0.063333
898, 13.000000, 0.063333
899, 13.500000, 0.063333
900, 14.000000, 0.063333
901, 14.500000, 0.063333
902, 15.000000, 0.063333
903, 15.500000, 0.063333
904, 16.000000, 0.063333
905, 16.500000, 0.063333
906, 17.000000, 0.063333
907, 17.500000, 0.063333
908, 18.000000, 0.063333
909, 18.500000, 0.063333
910, 19.000000, 0.063333
911, 19.500000, 0.063333
912, 20.000000, 0.063333
913, 20.500000, 0.063333
914, 21.000000, 0.063333
915, 21.500000, 0.063333
916, 22.000000, 0.063333
917, 22.500000, 0.063333
918, 23.000000, 0.063333
919, 23.500000, 0.063333
920, 24.000000, 0.063333
921, 24.500000, 0.063333
922, 25.000000, 0.063333
923, 25.500000, 0.063333
924, 26.000000, 0.063333
925, 26.500000, 0.063333
926, 27.000000, 0.063333
927, 27.500000, 0.063333
928, 28.000000, 0.063333
929, 28.500000, 0.063333
930, 29.000000, 0.063333
931, 29.500000, 0.063333
932, 30.000000, 0.063333
933, 30.500000, 0.063333
934, 31.000000, 0.063333
935, 31.500000, 0.063333
936, 32.000000, 0.063333
937, 32.500000, 0.063333
938, 33.000000, 0.063333
939, 33.500000, 0.063333
940, 34.000000, 0.063333
941, 34.500000, 0.063333
942, 35.000000, 0.063333
943, 35.500000, 0.063333
944, 36.000000, 0.063333
945, 36.500000, 0.063333
946, 37.000000, 0.063333
947, 37.500000, 0.063333
948, 38.000000, 0.063333
949, 38.125000, 0.063333
950, 38.250000, 0.063333
951, 38.375000, 0.063333
952, 38.500000, 0.063333
953, 38.625000, 0.063333
954, 38.750000, 0.063333
955, 38.875000, 0.063333
956, 39.000000, 0.063333
957, 39.125000, 0.063333
958, 39.250000, 0.063333
959, 39.375000, 0.063333
960, 39.500000, 0.063333
961, 39.625000, 0.063333
962, 39.750000, 0.063333
963, 39.875000, 0.063333
964, 40.000000, 0.063333
965, -40.000000, 0.080000
966, -39.875000, 0.080000
967, -39.750000, 0.080000
968, -39.625000, 0.080000
969, -39.500000, 0.080000
970, -39.375000, 0.080000
971, -39.250000, 0.080000
972, -39.125000, 0.080000
973, -39.000000, 0.080000
974, -38.875000, 0.080000
975, -38.750000, 0.080000
976, -38.625000, 0.080000
977, -38.500000, 0.080000
978, -38.375000, 0.080000
979, -38.250000, 0.080000
980, -38.125000, 0.080000
981, -38.000000, 0.080000
982, -37.500000, 0.080000
983, -37.000000, 0.080000
984, -36.500000, 0.080000
985, -36.000000, 0.080000
986, -35.500000, 0.080000
987, -35.000000, 0.080000
988, -34.500000, 0.080000
989, -34.000000, 0.080000
990, -33.500000, 0.080000
991, -33.000000, 0.080000
992, -32.500000, 0.080000
993, -32.000000, 0.080000
994, -31.500000, 0.080000
995, -31.000000, 0.080000
996, -30.500000, 0.080000
997, -30.000000, 0.080000
998, -29.500000, 0.080000
999, -29.000000, 0.080000
1000, -28.500000, 0.080000
1001, -28.000000, 0.080000
1002, -27.500000, 0.080000
1003, -27.000000, 0.080000
1004, -26.500000, 0.080000
1005, -26.000000, 0.080000
1006, -25.500000, 0.080000
1007, -25.000000, 0.080000
1008, -24.500000, 0.080000
1009, -24.000000, 0.080000
1010, -23.500000, 0.080000
1011, -23.000000, 0.080000
1012, -22.500000, 0.080000
1013, -22.000000, 0.080000
1014, -21.500000, 0.080000
1015, -21.000000, 0.080000
1016, -20.500000, 0.080000
1017, -20.000000, 0.080000
1018, -19.500000, 0.080000
1019, -19.000000, 0.080000
1020, -18.500000, 0.080000
1021, -18.000000, 0.080000
1022, -17.500000, 0.080000
1023, -17.000000, 0.080000
1024, -16.500000, 0.080000
1025, -16.000000, 0.080000
1026, -15.500000, 0.080000
1027, -15.000000, 0.080000
1028, -14.500000, 0.080000
1029, -14.000000, 0.080000
1030, -13.500000, 0.080000
1031, -13.000000, 0.080000
1032, -12.500000, 0.080000
1033, -12.000000, 0.080000
1034, -11.500000, 0.080000
1035, -11.000000, 0.080000
1036, -10.500000, 0.080000
1037, -10.000000, 0.080000
1038, -9.875000, 0.080000
1039, -9.750000, 0.080000
1040, -9.625000, 0.080000
1041, -9.500000, 0.080000
1042, -9.375000, 0.080000
1043, -9.250000, 0.080000
1044, -9.125000, 0.080000
1045, -9.000000, 0.080000
1046, -8.875000, 0.080000
1047, -8.750000, 0.080000
1048, -8.625000, 0.080000
1049, -8.500000, 0.080000
1050, -8.375000, 0.080000
1051, -8.250000, 0.080000
1052, -8.125000, 0.080000
1053, -8.000000, 0.080000
1054, -7.750000, 0.080000
1055, -7.500000, 0.080000
1056, -7.250000, 0.080000
1057, -7.000000, 0.080000
1058, -6.750000, 0.080000
1059, -6.500000, 0.080000
1060, -6.250000, 0.080000
1061, -6.000000, 0.080000
1062, -5.750000, 0.080000
1063, -5.500000, 0.080000
1064, -5.250000, 0.080000
1065, -5.000000, 0.080000
1066, -4.750000, 0.080000
1067, -4.500000, 0.080000
1068, -4.250000, 0.080000
1069, -4.000000, 0.080000
1070, -3.750000, 0.080000
1071, -3.500000, 0.080000
1072, -3.250000, 0.080000
1073, -3.000000, 0.080000
1074, -2.750000, 0.080000
1075, -2.500000, 0.080000
1076, -2.250000, 0.080000
1077, -2.000000, 0.080000
1078, -1.750000, 0.080000
1079, -1.500000, 0.080000
1080, -1.250000, 0.080000
1081, -1.000000, 0.080000
1082, -0.750000, 0.080000
1083, -0.500000, 0.080000
1084, -0.250000, 0.080000
1085, 0.000000, 0.080000
1086, 0.250000, 0.080000
1087, 0.500000, 0.080000
1088, 0.750000, 0.080000
1089, 1.000000, 0.080000
1090, 1.250000, 0.080000
1091, 1.500000, 0.080000
1092, 1.750000, 0.080000
1093, 2.000000, 0.080000
1094, 2.250000, 0.080000
1095, 2.500000, 0.080000
1096, 2.750000, 0.080000
1097, 3.000000, 0.080000
1098, 3.250000, 0.080000
1099, 3.500000, 0.080000
1100, 3.750000, 0.080000
1101, 4.000000, 0.080000
1102, 4.250000, 0.080000
1103, 4.500000, 0.080000
1104, 4.750000, 0.080000
1105, 5.000000, 0.080000
1106, 5.250000, 0.080000
1107, 5.500000, 0.080000
1108, 5.750000, 0.080000
1109, 6.000000, 0.080000
1110, 6.250000, 0.080000
1111, 6.500000, 0.080000
1112, 6.750000, 0.080000
1113, 7.000000, 0.080000
1114, 7.250000, 0.080000
1115, 7.500000, 0.080000
1116, 7.750000, 0.080000
1117, 8.000000, 0.080000
1118, 8.125000, 0.080000
1119, 8.250000, 0.080000
1120, 8.375000, 0.080000
1121, 8.500000, 0.080000
1122, 8.625000, 0.080000
1123, 8.750000, 0.080000
1124, 8.875000, 0.080000
1125, 9.000000, 0.080000
1126, 9.125000, 0.080000
1127, 9.250000, 0.080000
1128, 9.375000, 0.080000
1129, 9.500000, 0.080000
1130, 9.625000, 0.080000
1131, 9.750000, 0.080000
1132, 9.875000, 0.080000
1133, 10.000000, 0.080000
1134, 10.500000, 0.080000
1135, 11.000000, 0.080000
1136, 11.500000, 0.080000
1137, 12.000000, 0.080000
1138, 12.500000, 0.080000
1139, 13.000000, 0.080000
1140, 13.500000, 0.080000
1141, 14.000000, 0.080000
1142, 14.500000, 0.080000
1143, 15.000000, 0.080000
1144, 15.500000, 0.080000
1145, 16.000000, 0.080000
1146, 16.500000, 0.080000
1147, 17.000000, 0.080000
1148, 17.500000, 0.080000
1149, 18.000000, 0.080000
1150, 18.500000, 0.080000
1151, 19.000000, 0.080000
1152, 19.500000, 0.080000
1153, 20.000000, 0.080000
1154, 20.500000, 0.080000
1155, 21.000000, 0.080000
1156, 21.500000, 0.080000
1157, 22.000000, 0.080000
1158, 22.500000, 0.080000
1159, 23.000000, 0.080000
1160, 23.500000, 0.080000
1161, 24.000000, 0.080000
1162, 24.500000, 0.080000
1163, 25.000000, 0.080000
1164, 25.500000, 0.080000
1165, 26.000000, 0.080000
1166, 26.500000, 0.080000
1167, 27.000000, 0.080000
1168, 27.500000, 0.080000
1169, 28.000000, 0.080000
1170, 28.500000, 0.080000
1171, 29.000000, 0.080000
1172, 29.500000, 0.080000
1173, 30.000000, 0.080000
1174, 30.500000, 0.080000
1175, 31.000000, 0.080000
1176, 31.500000, 0.080000
1177, 32.000000, 0.080000
1178, 32.500000, 0.080000
1179, 33.000000, 0.080000
1180, 33.500000, 0.080000
1181, 34.000000, 0.080000
1182, 34.500000, 0.080000
1183, 35.000000, 0.080000
1184, 35.500000, 0.080000
1185, 36.000000, 0.080000
1186, 36.500000, 0.080000
1187, 37.000000, 0.080000
1188, 37.500000, 0.080000
1189, 38.000000, 0.080000
1190, 38.125000, 0.080000
1191, 38.250000, 0.080000
1192, 38.375000, 0.080000
1193, 38.500000, 0.080000
1194, 38.625000, 0.080000
1195, 38.750000, 0.080000
1196, 38.875000, 0.080000
1197, 39.000000, 0.080000
1198, 39.125000, 0.080000
1199, 39.250000, 0.080000
1200, 39.375000, 0.080000
1201, 39.500000, 0.080000
1202, 39.625000, 0.080000
1203, 39.750000, 0.080000
1204, 39.875000, 0.080000
1205, 40.000000, 0.080000
1206, -40.000000, 0.110000
1207, -39.875000, 0.110000
1208, -39.750000, 0.110000
1209, -39.625000, 0.110000
1210, -39.500000, 0.110000
1211, -39.375000, 0.110000
1212, -39.250000, 0.110000
1213, -39.125000, 0.110000
1214, -39.000000, 0.110000
1215, -38.875000, 0.110000
1216, -38.750000, 0.110000
1217, -38.625000, 0.110000
1218, -38.500000, 0.110000
1219, -38.375000, 0.110000
1220, -38.250000, 0.110000
1221, -38.125000, 0.110000
1222, -38.000000, 0.110000
1223, -37.500000, 0.110000
1224, -37.000000, 0.110000
1225, -36.500000, 0.110000
1226, -36.000000, 0.110000
1227, -35.500000, 0.110000
1228, -35.000000, 0.110000
1229, -34.500000, 0.110000
1230, -34.000000, 0.110000
1231, -33.500000, 0.110000
1232, -33.000000, 0.110000
1233, -32.500000, 0.110000
1234, -32.000000, 0.110000
1235, -31.500000, 0.110000
1236, -31.000000, 0.110000
1237, -30.500000, 0.110000
1238, -30.000000, 0.110000
1239, -29.500000, 0.110000
1240, -29.000000, 0.110000
1241, -28.500000, 0.110000
1242, -28.000000, 0.110000
1243, -27.500000, 0.110000
1244, -27.000000, 0.110000
1245, -26.500000, 0.110000
1246, -26.000000, 0.110000
1247, -25.500000, 0.110000
1248, -25.000000, 0.110000
1249, -24.500000, 0.110000
1250, -24.000000, 0.110000
1251, -23.500000, 0.110000
1252, -23.000000, 0.110000
1253, -22.500000, 0.110000
1254, -22.000000, 0.110000
1255, -21.500000, 0.110000
1256, -21.000000, 0.110000
1257, -20.500000, 0.110000
1258, -20.000000, 0.110000
1259, -19.500000, 0.110000
1260, -19.000000, 0.110000
1261, -18.500000, 0.110000
1262, -18.000000, 0.110000
1263, -17.500000, 0.110000
1264, -17.000000, 0.110000
1265, -16.500000, 0.110000
1266, -16.000000, 0.110000
1267, -15.500000, 0.110000
1268, -15.000000, 0.110000
1269, -14.500000, 0.110000
1270, -14.000000, 0.110000
1271, -13.500000, 0.110000
1272, -13.000000, 0.110000
1273, -12.500000, 0.110000
1274, -12.000000, 0.110000
1275, -11.500000, 0.110000
1276, -11.000000, 0.110000
1277, -10.500000, 0.110000
1278, -10.000000, 0.110000
1279, -9.875000, 0.110000
1280, -9.750000, 0.110000
1281, -9.625000, 0.110000
1282, -9.500000, 0.110000
1283, -9.375000, 0.110000
1284, -9.250000, 0.110000
1285, -9.125000, 0.110000
1286, -9.000000, 0.110000
1287, -8.875000, 0.110000
1288, -8.750000, 0.110000
1289, -8.625000, 0.110000
1290, -8.500000, 0.110000
1291, -8.375000, 0.110000
1292, -8.250000, 0.110000
1293, -8.125000, 0.110000
1294, -8.000000, 0.110000
1295, -7.750000, 0.110000
1296, -7.500000, 0.110000
1297, -7.250000, 0.110000
1298, -7.000000, 0.110000
1299, -6.750000, 0.110000
1300, -6.500000, 0.110000
1301, -6.250000, 0.110000
1302, -6.000000, 0.110000
1303, -5.750000, 0.110000
1304, -5.500000, 0.110000
1305, -5.250000, 0.110000
1306, -5.000000, 0.110000
1307, -4.750000, 0.110000
1308, -4.500000, 0.110000
1309, -4.250000, 0.110000
1310, -4.000000, 0.110000
1311, -3.750000, 0.110000
1312, -3.500000, 0.110000
1313, -3.250000, 0.110000
1314, -3.000000, 0.110000
1315, -2.750000, 0.110000
1316, -2.500000, 0.110000
1317, -2.250000, 0.110000
1318, -2.000000, 0.110000
1319, -1.750000, 0.110000
1320, -1.500000, 0.110000
1321, -1.250000, 0.110000
1322, -1.000000, 0.110000
1323, -0.750000, 0.110000
1324, -0.500000, 0.110000
1325, -0.250000, 0.110000
1326, 0.000000, 0.110000
1327, 0.250000, 0.110000
1328, 0.500000, 0.110000
1329, 0.750000, 0.110000
1330, 1.000000, 0.110000
1331, 1.250000, 0.110000
1332, 1.500000, 0.110000
1333, 1.750000, 0.110000
1334, 2.000000, 0.110000
1335, 2.250000, 0.110000
1336, 2.500000, 0.110000
1337, 2.750000, 0.110000
1338, 3.000000, 0.110000
1339, 3.250000, 0.110000
1340, 3.500000, 0.110000
1341, 3.750000, 0.110000
1342, 4.000000, 0.110000
1343, 4.250000, 0.110000
1344, 4.500000, 0.110000
1345, 4.750000, 0.110000
1346, 5.000000, 0.110000
1347, 5.250000, 0.110000
1348, 5.500000, 0.110000
1349, 5.750000, 0.110000
1350, 6.000000, 0.110000
1351, 6.250000, 0.110000
1352, 6.500000, 0.110000
1353, 6.750000, 0.110000
1354, 7.000000, 0.110000
1355, 7.250000, 0.110000
1356, 7.500000, 0.110000
1357, 7.750000, 0.110000
1358, 8.000000, 0.110000
1359, 8.125000, 0.110000
1360, 8.250000, 0.110000
1361, 8.375000, 0.110000
1362, 8.500000, 0.110000
1363, 8.625000, 0.110000
1364, 8.750000, 0.110000
1365, 8.875000, 0.110000
1366, 9.000000, 0.110000
1367, 9.125000, 0.110000
1368, 9.250000, 0.110000
1369, 9.375000, 0.110000
1370, 9.500000, 0.110000
1371, 9.625000, 0.110000
1372, 9.750000, 0.110000
1373, 9.875000, 0.110000
1374, 10.000000, 0.110000
1375, 10.500000, 0.110000
1376, 11.000000, 0.110000
1377, 11.500000, 0.110000
1378, 12.000000, 0.110000
1379, 12.500000, 0.110000
1380, 13.000000, 0.110000
1381, 13.500000, 0.110000
1382, 14.000000, 0.110000
1383, 14.500000, 0.110000
1384, 15.000000, 0.110000
1385, 15.500000, 0.110000
1386, 16.000000, 0.110000
1387, 16.500000, 0.110000
1388, 17.000000, 0.110000
1389, 17.500000, 0.110000
1390, 18.000000, 0.110000
1391, 18.500000, 0.110000
1392, 19.000000, 0.110000
1393, 19.500000, 0.110000
1394, 20.000000, 0.110000
1395, 20.500000, 0.110000
1396, 21.000000, 0.110000
1397, 21.500000, 0.110000
1398, 22.000000, 0.110000
1399, 22.500000, 0.110000
1400, 23.000000, 0.110000
1401, 23.500000, 0.110000
1402, 24.000000, 0.110000
1403, 24.500000, 0.110000
1404, 25.000000, 0.110000
1405, 25.500000, 0.110000
1406, 26.000000, 0.110000
1407, 26.500000, 0.110000
1408, 27.000000, 0.110000
1409, 27.500000, 0.110000
1410, 28.000000, 0.110000
1411, 28.500000, 0.110000
1412, 29.000000, 0.110000
1413, 29.500000, 0.110000
1414, 30.000000, 0.110000
1415, 30.500000, 0.110000
1416, 31.000000, 0.110000
1417, 31.500000, 0.110000
1418, 32.000000, 0.110000
1419, 32.500000, 0.110000
1420, 33.000000, 0.110000
1421, 33.500000, 0.110000
1422, 34.000000, 0.110000
1423, 34.500000, 0.110000
1424, 35.000000, 0.110000
1425, 35.500000, 0.110000
1426, 36.000000, 0.110000
1427, 36.500000, 0.110000
1428, 37.000000, 0.110000
1429, 37.500000, 0.110000
1430, 38.000000, 0.110000
1431, 38.125000, 0.110000
1432, 38.250000, 0.110000
1433, 38.375000, 0.110000
1434, 38.500000, 0.110000
1435, 38.625000, 0.110000
1436, 38.750000, 0.110000
1437, 38.875000, 0.110000
1438, 39.000000, 0.110000
1439, 39.125000, 0.110000
1440, 39.250000, 0.110000
1441, 39.375000, 0.110000
1442, 39.500000, 0.110000
1443, 39.625000, 0.110000
1444, 39.750000, 0.110000
1445, 39.875000, 0.110000
1446, 40.000000, 0.110000
1447, -40.000000, 0.126667
1448, -39.875000, 0.126667
1449, -39.750000, 0.126667
1450, -39.625000, 0.126667
1451, -39.500000, 0.126667
1452, -39.375000, 0.126667
1453, -39.250000, 0.126667
1454, -39.125000, 0.126667
1455, -39.000000, 0.126667
1456, -38.875000, 0.126667
1457, -38.750000, 0.126667
1458, -38.625000, 0.126667
1459, -38.500000, 0.126667
1460, -38.375000, 0.126667
1461, -38.250000, 0.126667
1462, -38.125000, 0.126667
1463, -38.000000, 0.126667
1464, -37.500000, 0.126667
1465, -37.000000, 0.126667
1466, -36.500000, 0.126667
1467, -36.000000, 0.126667
1468, -35.500000, 0.126667
1469, -35.000000, 0.126667
1470, -34.500000, 0.126667
1471, -34.000000, 0.126667
1472, -33.500000, 0.126667
1473, -33.000000, 0.126667
1474, -32.500000, 0.126667
1475, -32.000000, 0.126667
1476, -31.500000, 0.126667
1477, -31.000000, 0.126667
1478, -30.500000, 0.126667
1479, -30.000000, 0.126667
1480, -29.500000, 0.126667
1481, -29.000000, 0.126667
1482, -28.500000, 0.126667
1483, -28.000000, 0.126667
1484, -27.500000, 0.126667
1485, -27.000000, 0.126667
1486, -26.500000, 0.126667
1487, -26.000000, 0.126667
1488, -25.500000, 0.126667
1489, -25.000000, 0.126667
1490, -24.500000, 0.126667
1491, -24.000000, 0.126667
1492, -23.500000, 0.126667
1493, -23.000000, 0.126667
1494, -22.500000, 0.126667
1495, -22.000000, 0.126667
1496, -21.500000, 0.126667
1497, -21.000000, 0.126667
1498, -20.500000, 0.126667
1499, -20.000000, 0.126667
1500, -19.500000, 0.126667
1501, -19.000000, 0.126667
1502, -18.500000, 0.126667
1503, -18.000000, 0.126667
1504, -17.500000, 0.126667
1505, -17.000000, 0.126667
1506, -16.500000, 0.126667
1507, -16.000000, 0.126667
1508, -15.500000, 0.126667
1509, -15.000000, 0.126667
1510, -14.500000, 0.126667
1511, -14.000000, 0.126667
1512, -13.500000, 0.126667
1513, -13.000000, 0.126667
1514, -12.500000, 0.126667
1515, -12.000000, 0.126667
1516, -11.500000, 0.126667
1517, -11.000000, 0.126667
1518, -10.500000, 0.126667
1519, -10.000000, 0.126667
1520, -9.875000, 0.126667
1521, -9.750000, 0.126667
1522, -9.625000, 0.126667
1523, -9.500000, 0.126667
1524, -9.375000, 0.126667
1525, -9.250000, 0.126667
1526, -9.125000, 0.126667
1527, -9.000000, 0.126667
1528, -8.875000, 0.126667
1529, -8.750000, 0.126667
1530, -8.625000, 0.126667
1531, -8.500000, 0.126667
1532, -8.375000, 0.126667
1533, -8.250000, 0.126667
1534, -8.125000, 0.126667
1535, -8.000000, 0.126667
1536, -7.750000, 0.126667
1537, -7.500000, 0.126667
1538, -7.250000, 0.126667
1539, -7.000000, 0.126667
1540, -6.750000, 0.126667
1541, -6.500000, 0.126667
1542, -6.250000, 0.126667
1543, -6.000000, 0.126667
1544, -5.750000, 0.126667
1545, -5.500000, 0.126667
1546, -5.250000, 0.126667
1547, -5.000000, 0.126667
1548, -4.750000, 0.126667
1549, -4.500000, 0.126667
1550, -4.250000, 0.126667
1551, -4.000000, 0.126667
1552, -3.750000, 0.126667
1553, -3.500000, 0.126667
1554, -3.250000, 0.126667
1555, -3.000000, 0.126667
1556, -2.750000, 0.126667
1557, -2.500000, 0.126667
1558, -2.250000, 0.126667
1559, -2.000000, 0.126667
1560, -1.750000, 0.126667
1561, -1.500000, 0.126667
1562, -1.250000, 0.126667
1563, -1.000000, 0.126667
1564, -0.750000, 0.126667
1565, -0.500000, 0.126667
1566, -0.250000, 0.126667
1567, 0.000000, 0.126667
1568, 0.250000, 0.126667
1569, 0.500000, 0.126667
1570, 0.750000, 0.126667
1571, 1.000000, 0.126667
1572, 1.250000, 0.126667
1573, 1.500000, 0.126667
1574, 1.750000, 0.126667
1575, 2.000000, 0.126667
1576, 2.250000, 0.126667
1577, 2.500000, 0.126667
1578, 2.750000, 0.126667
1579, 3.000000, 0.126667
1580, 3.250000, 0.126667
1581, 3.500000, 0.126667
1582, 3.750000, 0.126667
1583, 4.000000, 0.126667
1584, 4.250000, 0.126667
1585, 4.500000, 0.126667
1586, 4.750000, 0.126667
1587, 5.000000, 0.126667
1588, 5.250000, 0.126667
1589, 5.500000, 0.126667
1590, 5.750000, 0.126667
1591, 6.000000, 0.126667
1592, 6.250000, 0.126667
1593, 6.500000, 0.126667
1594, 6.750000, 0.126667
1595, 7.000000, 0.126667
1596, 7.250000, 0.126667
1597, 7.500000, 0.126667
1598, 7.750000, 0.126667
1599, 8.000000, 0.126667
1600, 8.125000, 0.126667
1601, 8.250000, 0.126667
1602, 8.375000, 0.126667
1603, 8.500000, 0.126667
1604, 8.625000, 0.126667
1605, 8.750000, 0.126667
1606, 8.875000, 0.126667
1607, 9.000000, 0.126667
1608, 9.125000, 0.126667
1609, 9.250000, 0.126667
1610, 9.375000, 0.126667
1611, 9.500000, 0.126667
1612, 9.625000, 0.126667
1613, 9.750000, 0.126667
1614, 9.875000, 0.126667
1615, 10.000000, 0.126667
1616, 10.500000, 0.126667
1617, 11.000000, 0.126667
1618, 11.500000, 0.126667
1619, 12.000000, 0.126667
1620, 12.500000, 0.126667
1621, 13.000000, 0.126667
1622, 13.500000, 0.126667
1623, 14.000000, 0.126667
1624, 14.500000, 0.126667
1625, 15.000000, 0.126667
1626, 15.500000, 0.126667
1627, 16.000000, 0.126667
1628, 16.500000, 0.126667
1629, 17.000000, 0.126667
1630, 17.500000, 0.126667
1631, 18.000000, 0.126667
1632, 18.500000, 0.126667
1633, 19.000000, 0.126667
1634, 19.500000, 0.126667
1635, 20.000000, 0.126667
1636, 20.500000, 0.126667
1637, 21.000000, 0.126667
1638, 21.500000, 0.126667
1639, 22.000000, 0.126667
1640, 22.500000, 0.126667
1641, 23.000000, 0.126667
1642, 23.500000, 0.126667
1643, 24.000000, 0.126667
1644, 24.500000, 0.126667
1645, 25.000000, 0.126667
1646, 25.500000, 0.126667
1647, 26.000000, 0.126667
1648, 26.500000, 0.126667
1649, 27.000000, 0.126667
1650, 27.500000, 0.126667
1651, 28.000000, 0.126667
1652, 28.500000, 0.126667
1653, 29.000000, 0.126667
1654, 29.500000, 0.126667
1655, 30.000000, 0.126667
1656, 30.500000, 0.126667
1657, 31.000000, 0.126667
1658, 31.500000, 0.126667
1659, 32.000000, 0.126667
1660, 32.500000, 0.126667
1661, 33.000000, 0.126667
1662, 33.500000, 0.126667
1663, 34.000000, 0.126667
1664, 34.500000, 0.126667
1665, 35.000000, 0.126667
1666, 35.500000, 0.126667
1667, 36.000000, 0.126667
1668, 36.500000, 0.126667
1669, 37.000000, 0.126667
1670, 37.500000, 0.126667
1671, 38.000000, 0.126667
1672, 38.125000, 0.126667
1673, 38.250000, 0.126667
1674, 38.375000, 0.126667
1675, 38.500000, 0.126667
1676, 38.625000, 0.126667
1677, 38.750000, 0.126667
1678, 38.875000, 0.126667
1679, 39.000000, 0.126667
1680, 39.125000, 0.126667
1681, 39.250000, 0.126667
1682, 39.375000, 0.126667
1683, 39.500000, 0.126667
1684, 39.625000, 0.126667
1685, 39.750000, 0.126667
1686, 39.875000, 0.126667
1687, 40.000000, 0.126667
1688, -40.000000, 0.143333
1689, -39.875000, 0.143333
1690, -39.750000, 0.143333
1691, -39.625000, 0.143333
1692, -39.500000, 0.143333
1693, -39.375000, 0.143333
1694, -39.250000, 0.143333
1695, -39.125000, 0.143333
1696, -39.000000, 0.143333
1697, -38.875000, 0.143333
1698, -38.750000, 0.143333
1699, -38.625000, 0.143333
1700, -38.500000, 0.143333
1701, -38.375000, 0.143333
1702, -38.250000, 0.143333
1703, -38.125000, 0.143333
1704, -38.000000, 0.143333
1705, -37.500000, 0.143333
1706, -37.000000, 0.143333
1707, -36.500000, 0.143333
1708, -36.000000, 0.143333
1709, -35.500000, 0.143333
1710, -35.000000, 0.143333
1711, -34.500000, 0.143333
1712, -34.000000, 0.143333
1713, -33.500000, 0.143333
1714, -33.000000, 0.143333
1715, -32.500000, 0.143333
1716, -32.000000, 0.143333
1717, -31.500000, 0.143333
1718, -31.000000, 0.143333
1719, -30.500000, 0.143333
1720, -30.000000, 0.143333
1721, -29.500000, 0.143333
1722, -29.000000, 0.143333
1723, -28.500000, 0.143333
1724, -28.000000, 0.143333
1725, -27.500000, 0.143333
1726, -27.000000, 0.143333
1727, -26.500000, 0.143333
1728, -26.000000, 0.143333
1729, -25.500000, 0.143333
1730, -25.000000, 0.143333
1731, -24.500000, 0.143333
1732, -24.000000, 0.143333
1733, -23.500000, 0.143333
1734, -23.000000, 0.143333
1735, -22.500000, 0.143333
1736, -22.000000, 0.143333
1737, -21.500000, 0.143333
1738, -21.000000, 0.143333
1739, -20.500000, 0.143333
1740, -20.000000, 0.143333
1741, -19.500000, 0.143333
1742, -19.000000, 0.143333
1743, -18.500000, 0.143333
1744, -18.000000, 0.143333
1745, -17.500000, 0.143333
1746, -17.000000, 0.143333
1747, -16.500000, 0.143333
1748, -16.000000, 0.143333
1749, -15.500000, 0.143333
1750, -15.000000, 0.143333
1751, -14.500000, 0.143333
1752, -14.000000, 0.143333
1753, -13.500000, 0.143333
1754, -13.000000, 0.143333
1755, -12.500000, 0.143333
1756, -12.000000, 0.143333
1757, -11.500000, 0.143333
1758, -11.000000, 0.143333
1759, -10.500000, 0.143333
1760, -10.000000, 0.143333
1761, -9.875000, 0.143333
1762, -9.750000, 0.143333
1763, -9.625000, 0.143333
1764, -9.500000, 0.143333
1765, -9.375000, 0.143333
1766, -9.250000, 0.143333
1767, -9.125000, 0.143333
1768, -9.000000, 0.143333
1769, -8.875000, 0.143333
1770, -8.750000, 0.143333
1771, -8.625000, 0.143333
1772, -8.500000, 0.143333
1773, -8.375000, 0.143333
1774, -8.250000, 0.143333
1775, -8.125000, 0.143333
1776, -8.000000, 0.143333
1777, -7.750000, 0.143333
1778, -7.500000, 0.143333
1779, -7.250000, 0.143333
1780, -7.000000, 0.143333
1781, -6.750000, 0.143333
1782, -6.500000, 0.143333
1783, -6.250000, 0.143333
1784, -6.000000, 0.143333
1785, -5.750000, 0.143333
1786, -5.500000, 0.143333
1787, -5.250000, 0.143333
1788, -5.000000, 0.143333
1789, -4.750000, 0.143333
1790, -4.500000, 0.143333
1791, -4.250000, 0.143333
1792, -4.000000, 0.143333
1793, -3.750000, 0.143333
1794, -3.500000, 0.143333
1795, -3.250000, 0.143333
1796, -3.000000, 0.143333
1797, -2.750000, 0.143333
1798, -2.500000, 0.143333
1799, -2.250000, 0.143333
1800, -2.000000, 0.143333
1801, -1.750000, 0.143333
1802, -1.500000, 0.143333
1803, -1.250000, 0.143333
1804, -1.000000, 0.143333
1805, -0.750000, 0.143333
1806, -0.500000, 0.143333
1807, -0.250000, 0.143333
1808, 0.000000, 0.143333
1809, 0.250000, 0.143333
1810, 0.500000, 0.143333
1811, 0.750000, 0.143333
1812, 1.000000, 0.143333
1813, 1.250000, 0.143333
1814, 1.500000, 0.143333
1815, 1.750000, 0.143333
1816, 2.000000, 0.143333
1817, 2.250000, 0.143333
1818, 2.500000, 0.143333
1819, 2.750000, 0.143333
1820, 3.000000, 0.143333
1821, 3.250000, 0.143333
1822, 3.500000, 0.143333
1823, 3.750000, 0.143333
1824, 4.000000, 0.143333
1825, 4.250000, 0.143333
1826, 4.500000, 0.143333
1827, 4.750000, 0.143333
1828, 5.000000, 0.143333
1829, 5.250000, 0.143333
1830, 5.500000, 0.143333
1831, 5.750000, 0.143333
1832, 6.000000, 0.143333
1833, 6.250000, 0.143333
1834, 6.500000, 0.143333
1835, 6.750000, 0.143333
1836, 7.000000, 0.143333
1837, 7.250000, 0.143333
1838, 7.500000, 0.143333
1839, 7.750000, 0.143333
1840, 8.000000, 0.143333
1841, 8.125000, 0.143333
1842, 8.250000, 0.143333
1843, 8.375000, 0.143333
1844, 8.500000, 0.143333
1845, 8.625000, 0.143333
1846, 8.750000, 0.143333
1847, 8.875000, 0.143333
1848, 9.000000, 0.143333
1849, 9.125000, 0.143333
1850, 9.250000, 0.143333
1851, 9.375000, 0.143333
1852, 9.500000, 0.143333
1853, 9.625000, 0.143333
1854, 9.750000, 0.143333
1855, 9.875000, 0.143333
1856, 10.000000, 0.143333
1857, 10.500000, 0.143333
1858, 11.000000, 0.143333
1859, 11.500000, 0.143333
1860, 12.000000, 0.143333
1861, 12.500000, 0.143333
1862, 13.000000, 0.143333
1863, 13.500000, 0.143333
1864, 14.000000, 0.143333
1865, 14.500000, 0.143333
1866, 15.000000, 0.143333
1867, 15.500000, 0.143333
1868, 16.000000, 0.143333
1869, 16.500000, 0.143333
1870, 17.000000, 0.143333
1871, 17.500000, 0.143333
1872, 18.000000, 0.143333
1873, 18.500000, 0.143333
1874, 19.000000, 0.143333
1875, 19.500000, 0.143333
1876, 20.000000, 0.143333
1877, 20.500000, 0.143333
1878, 21.000000, 0.143333
1879, 21.500000, 0.143333
1880, 22.000000, 0.143333
1881, 22.500000, 0.143333
1882, 23.000000, 0.143333
1883, 23.500000, 0.143333
1884, 24.000000, 0.143333
1885, 24.500000, 0.143333
1886, 25.000000, 0.143333
1887, 25.500000, 0.143333
1888, 26.000000, 0.143333
1889, 26.500000, 0.143333
1890, 27.000000, 0.143333
1891, 27.500000, 0.143333
1892, 28.000000, 0.143333
1893, 28.500000, 0.143333
1894, 29.000000, 0.143333
1895, 29.500000, 0.143333
1896, 30.000000, 0.143333
1897, 30.500000, 0.143333
1898, 31.000000, 0.143333
1899, 31.500000, 0.143333
1900, 32.000000, 0.143333
1901, 32.500000, 0.143333
1902, 33.000000, 0.143333
1903, 33.500000, 0.143333
1904, 34.000000, 0.143333
1905, 34.500000, 0.143333
1906, 35.000000, 0.143333
1907, 35.500000, 0.143333
1908, 36.000000, 0.143333
1909, 36.500000, 0.143333
1910, 37.000000, 0.143333
1911, 37.500000, 0.143333
1912, 38.000000, 0.143333
1913, 38.125000, 0.143333
1914, 38.250000, 0.143333
1915, 38.375000, 0.143333
1916, 38.500000, 0.143333
1917, 38.625000, 0.143333
1918, 38.750000, 0.143333
1919, 38.875000, 0.143333
1920, 39.000000, 0.143333
1921, 39.125000, 0.143333
1922, 39.250000, 0.143333
1923, 39.375000, 0.143333
1924, 39.500000, 0.143333
1925, 39.625000, 0.143333
1926, 39.750000, 0.143333
1927, 39.875000, 0.143333
1928, 40.000000, 0.143333
1929, -40.000000, 0.160000
1930, -39.875000, 0.160000
1931, -39.750000, 0.160000
1932, -39.625000, 0.160000
1933, -39.500000, 0.160000
1934, -39.375000, 0.160000
1935, -39.250000, 0.160000
1936, -39.125000, 0.160000
1937, -39.000000, 0.160000
1938, -38.875000, 0.160000
1939, -38.750000, 0.160000
1940, -38.625000, 0.160000
1941, -38.500000, 0.160000
1942, -38.375000, 0.160000
1943, -38.250000, 0.160000
1944, -38.125000, 0.160000
1945, -38.000000, 0.160000
1946, -37.500000, 0.160000
1947, -37.000000, 0.160000
1948, -36.500000, 0.160000
1949, -36.000000, 0.160000
1950, -35.500000, 0.160000
1951, -35.000000, 0.160000
1952, -34.500000, 0.160000
1953, -34.000000, 0.160000
1954, -33.500000, 0.160000
1955, -33.000000, 0.160000
1956, -32.500000, 0.160000
1957, -32.000000, 0.160000
1958, -31.500000, 0.160000
1959, -31.000000, 0.160000
1960, -30.500000, 0.160000
1961, -30.000000, 0.160000
1962, -29.500000, 0.160000
1963, -29.000000, 0.160000
1964, -28.500000, 0.160000
1965, -28.000000, 0.160000
1966, -27.500000, 0.160000
1967, -27.000000, 0.160000
1968, -26.500000, 0.160000
1969, -26.000000, 0.160000
1970, -25.500000, 0.160000
1971, -25.000000, 0.160000
1972, -24.500000, 0.160000
1973, -24.000000, 0.160000
1974, -23.500000, 0.160000
1975, -23.000000, 0.160000
1976, -22.500000, 0.160000
1977, -22.000000, 0.160000
1978, -21.500000, 0.160000
1979, -21.000000, 0.160000
1980, -20.500000, 0.160000
1981, -20.000000, 0.160000
1982, -19.500000, 0.160000
1983, -19.000000, 0.160000
1984, -18.500000, 0.160000
1985, -18.000000, 0.160000
1986, -17.500000, 0.160000
1987, -17.000000, 0.160000
1988, -16.500000, 0.160000
1989, -16.000000, 0.160000
1990, -15.500000, 0.160000
1991, -15.000000, 0.160000
1992, -14.500000, 0.160000
1993, -14.000000, 0.160000
1994, -13.500000, 0.160000
1995, -13.000000, 0.160000
1996, -12.500000, 0.160000
1997, -12.000000, 0.160000
1998, -11.500000, 0.160000
1999, -11.000000, 0.160000
2000, -10.500000, 0.160000
2001, -10.000000, 0.160000
2002, -9.875000, 0.160000
2003, -9.750000, 0.160000
2004, -9.625000, 0.160000
2005, -9.500000, 0.160000
2006, -9.375000, 0.160000
2007, -9.250000, 0.160000
2008, -9.125000, 0.160000
2009, -9.000000, 0.160000
2010, -8.875000, 0.160000
2011, -8.750000, 0.160000
2012, -8.625000, 0.160000
2013, -8.500000, 0.160000
2014, -8.375000, 0.160000
2015, -8.250000, 0.160000
2016, -8.125000, 0.160000
2017, -8.000000, 0.160000
2018, -7.750000, 0.160000
2019, -7.500000, 0.160000
2020, -7.250000, 0.160000
2021, -7.000000, 0.160000
2022, -6.750000, 0.160000
2023, -6.500000, 0.160000
2024, -6.250000, 0.160000
2025, -6.000000, 0.160000
2026, -5.750000, 0.160000
2027, -5.500000, 0.160000
2028, -5.250000, 0.160000
2029, -5.000000, 0.160000
2030, -4.750000, 0.160000
2031, -4.500000, 0.160000
2032, -4.250000, 0.160000
2033, -4.000000, 0.160000
2034, -3.750000, 0.160000
2035, -3.500000, 0.160000
2036, -3.250000, 0.160000
2037, -3.000000, 0.160000
2038, -2.750000, 0.160000
2039, -2.500000, 0.160000
2040, -2.250000, 0.160000
2041, -2.000000, 0.160000
2042, -1.750000, 0.160000
2043, -1.500000, 0.160000
2044, -1.250000, 0.160000
2045, -1.000000, 0.160000
2046, -0.750000, 0.160000
2047, -0.500000, 0.160000
2048, -0.250000, 0.160000
2049, 0.000000, 0.160000
2050, 0.250000, 0.160000
2051, 0.500000, 0.160000
2052, 0.750000, 0.160000
2053, 1.000000, 0.160000
2054, 1.250000, 0.160000
2055, 1.500000, 0.160000
2056, 1.750000, 0.160000
2057, 2.000000, 0.160000
2058, 2.250000, 0.160000
2059, 2.500000, 0.160000
2060, 2.750000, 0.160000
2061, 3.000000, 0.160000
2062, 3.250000, 0.160000
2063, 3.500000, 0.160000
2064, 3.750000, 0.160000
2065, 4.000000, 0.160000
2066, 4.250000, 0.160000
2067, 4.500000, 0.160000
2068, 4.750000, 0.160000
2069, 5.000000, 0.160000
2070, 5.250000, 0.160000
2071, 5.500000, 0.160000
2072, 5.750000, 0.160000
2073, 6.000000, 0.160000
2074, 6.250000, 0.160000
2075, 6.500000, 0.160000
2076, 6.750000, 0.160000
2077, 7.000000, 0.160000
2078, 7.250000, 0.160000
2079, 7.500000, 0.160000
2080, 7.750000, 0.160000
2081, 8.000000, 0.160000
2082, 8.125000, 0.160000
2083, 8.250000, 0.160000
2084, 8.375000, 0.160000
2085, 8.500000, 0.160000
2086, 8.625000, 0.160000
2087, 8.750000, 0.160000
2088, 8.875000, 0.160000
2089, 9.000000, 0.160000
2090, 9.125000, 0.160000
2091, 9.250000, 0.160000
2092, 9.375000, 0.160000
2093, 9.500000, 0.160000
2094, 9.625000, 0.160000
2095, 9.750000, 0.160000
2096, 9.875000, 0.160000
2097, 10.000000, 0.160000
2098, 10.500000, 0.160000
2099, 11.000000, 0.160000
2100, 11.500000, 0.160000
2101, 12.000000, 0.160000
2102, 12.500000, 0.160000
2103, 13.000000, 0.160000
2104, 13.500000, 0.160000
2105, 14.000000, 0.160000
2106, 14.500000, 0.160000
2107, 15.000000, 0.160000
2108, 15.500000, 0.160000
2109, 16.000000, 0.160000
2110, 16.500000, 0.160000
2111, 17.000000, 0.160000
2112, 17.500000, 0.160000
2113, 18.000000, 0.160000
2114, 18.500000, 0.160000
2115, 19.000000, 0.160000
2116, 19.500000, 0.160000
2117, 20.000000, 0.160000
2118, 20.500000, 0.160000
2119, 21.000000, 0.160000
2120, 21.500000, 0.160000
2121, 22.000000, 0.160000
2122, 22.500000, 0.160000
2123, 23.000000, 0.160000
2124, 23.500000, 0.160000
2125, 24.000000, 0.160000
2126, 24.500000, 0.160000
2127, 25.000000, 0.160000
2128, 25.500000, 0.160000
2129, 26.000000, 0.160000
2130, 26.500000, 0.160000
2131, 27.000000, 0.160000
2132, 27.500000, 0.160000
2133, 28.000000, 0.160000
2134, 28.500000, 0.160000
2135, 29.000000, 0.160000
2136, 29.500000, 0.160000
2137, 30.000000, 0.160000
2138, 30.500000, 0.160000
2139, 31.000000, 0.160000
2140, 31.500000, 0.160000
2141, 32.000000, 0.160000
2142, 32.500000, 0.160000
2143, 33.000000, 0.160000
2144, 33.500000, 0.160000
2145, 34.000000, 0.160000
2146, 34.500000, 0.160000
2147, 35.000000, 0.160000
2148, 35.500000, 0.160000
2149, 36.000000, 0.160000
2150, 36.500000, 0.160000
2151, 37.000000, 0.160000
2152, 37.500000, 0.160000
2153, 38.000000, 0.160000
2154, 38.125000, 0.160000
2155, 38.250000, 0.160000
2156, 38.375000, 0.160000
2157, 38.500000, 0.160000
2158, 38.625000, 0.160000
2159, 38.750000, 0.160000
2160, 38.875000, 0.160000
2161, 39.000000, 0.160000
2162, 39.125000, 0.160000
2163, 39.250000, 0.160000
2164, 39.375000, 0.160000
2165, 39.500000, 0.160000
2166, 39.625000, 0.160000
2167, 39.750000, 0.160000
2168, 39.875000, 0.160000
2169, 40.000000, 0.160000
2170, -40.000000, 0.190000
2171, -39.875000, 0.190000
2172, -39.750000, 0.190000
2173, -39.625000, 0.190000
2174, -39.500000, 0.190000
2175, -39.375000, 0.190000
2176, -39.250000, 0.190000
2177, -39.125000, 0.190000
2178, -39.000000, 0.190000
2179, -38.875000, 0.190000
2180, -38.750000, 0.190000
2181, -38.625000, 0.190000
2182, -38.500000, 0.190000
2183, -38.375000, 0.190000
2184, -38.250000, 0.190000
2185, -38.125000, 0.190000
2186, -38.000000, 0.190000
2187, -37.500000, 0.190000
2188, -37.000000, 0.190000
2189, -36.500000, 0.190000
2190, -36.000000, 0.190000
2191, -35.500000, 0.190000
2192, -35.000000, 0.190000
2193, -34.500000, 0.190000
2194, -34.000000, 0.190000
2195, -33.500000, 0.190000
2196, -33.000000, 0.190000
2197, -32.500000, 0.190000
2198, -32.000000, 0.190000
2199, -31.500000, 0.190000
2200, -31.000000, 0.190000
2201, -30.500000, 0.190000
2202, -30.000000, 0.190000
2203, -29.500000, 0.190000
2204, -29.000000, 0.190000
2205, -28.500000, 0.190000
2206, -28.000000, 0.190000
2207, -27.500000, 0.190000
2208, -27.000000, 0.190000
2209, -26.500000, 0.190000
2210, -26.000000, 0.190000
2211, -25.500000, 0.190000
2212, -25.000000, 0.190000
2213, -24.500000, 0.190000
2214, -24.000000, 0.190000
2215, -23.500000, 0.190000
2216, -23.000000, 0.190000
2217, -22.500000, 0.190000
2218, -22.000000, 0.190000
2219, -21.500000, 0.190000
2220, -21.000000, 0.190000
2221, -20.500000, 0.190000
2222, -20.000000, 0.190000
2223, -19.500000, 0.190000
2224, -19.000000, 0.190000
2225, -18.500000, 0.190000
2226, -18.000000, 0.190000
2227, -17.500000, 0.190000
2228, -17.000000, 0.190000
2229, -16.500000, 0.190000
2230, -16.000000, 0.190000
2231, -15.500000, 0.190000
2232, -15.000000, 0.190000
2233, -14.500000, 0.190000
2234, -14.000000, 0.190000
2235, -13.500000, 0.190000
2236, -13.000000, 0.190000
2237, -12.500000, 0.190000
2238, -12.000000, 0.190000
2239, -11.500000, 0.190000
2240, -11.000000, 0.190000
2241, -10.500000, 0.190000
2242, -10.000000, 0.190000
2243, -9.875000, 0.190000
2244, -9.750000, 0.190000
2245, -9.625000, 0.190000
2246, -9.500000, 0.190000
2247, -9.375000, 0.190000
2248, -9.250000, 0.190000
2249, -9.125000, 0.190000
2250, -9.000000, 0.190000
2251, -8.875000, 0.190000
2252, -8.750000, 0.190000
2253, -8.625000, 0.190000
2254, -8.500000, 0.190000
2255, -8.375000, 0.190000
2256, -8.250000, 0.190000
2257, -8.125000, 0.190000
2258, -8.000000, 0.190000
2259, -7.750000, 0.190000
2260, -7.500000, 0.190000
2261, -7.250000, 0.190000
2262, -7.000000, 0.190000
2263, -6.750000, 0.190000
2264, -6.500000, 0.190000
2265, -6.250000, 0.190000
2266, -6.000000, 0.190000
2267, -5.750000, 0.190000
2268, -5.500000, 0.190000
2269, -5.250000, 0.190000
2270, -5.000000, 0.190000
2271, -4.750000, 0.190000
2272, -4.500000, 0.190000
2273, -4.250000, 0.190000
2274, -4.000000, 0.190000
2275, -3.750000, 0.190000
2276, -3.500000, 0.190000
2277, -3.250000, 0.190000
2278, -3.000000, 0.190000
2279, -2.750000, 0.190000
2280, -2.500000, 0.190000
2281, -2.250000, 0.190000
2282, -2.000000, 0.190000
2283, -1.750000, 0.190000
2284, -1.500000, 0.190000
2285, -1.250000, 0.190000
2286, -1.000000, 0.190000
2287, -0.750000, 0.190000
2288, -0.500000, 0.190000
2289, -0.250000, 0.190000
2290, 0.000000, 0.190000
2291, 0.250000, 0.190000
2292, 0.500000, 0.190000
2293, 0.750000, 0.190000
2294, 1.000000, 0.190000
2295, 1.250000, 0.190000
2296, 1.500000, 0.190000
2297, 1.750000, 0.190000
2298, 2.000000, 0.190000
2299, 2.250000, 0.190000
2300, 2.500000, 0.190000
2301, 2.750000, 0.190000
2302, 3.000000, 0.190000
2303, 3.250000, 0.190000
2304, 3.500000, 0.190000
2305, 3.750000, 0.190000
2306, 4.000000, 0.190000
2307, 4.250000, 0.190000
2308, 4.500000, 0.190000
2309, 4.750000, 0.190000
2310, 5.000000, 0.190000
2311, 5.250000, 0.190000
2312, 5.500000, 0.190000
2313, 5.750000, 0.190000
2314, 6.000000, 0.190000
2315, 6.250000, 0.190000
2316, 6.500000, 0.190000
2317, 6.750000, 0.190000
2318, 7.000000, 0.190000
2319, 7.250000, 0.190000
2320, 7.500000, 0.190000
2321, 7.750000, 0.190000
2322, 8.000000, 0.190000
2323, 8.125000, 0.190000
2324, 8.250000, 0.190000
2325, 8.375000, 0.190000
2326, 8.500000, 0.190000
2327, 8.625000, 0.190000
2328, 8.750000, 0.190000
2329, 8.875000, 0.190000
2330, 9.000000, 0.190000
2331, 9.125000, 0.190000
2332, 9.250000, 0.190000
2333, 9.375000, 0.190000
2334, 9.500000, 0.190000
2335, 9.625000, 0.190000
2336, 9.750000, 0.190000
2337, 9.875000, 0.190000
2338, 10.000000, 0.190000
2339, 10.500000, 0.190000
2340, 11.000000, 0.190000
2341, 11.500000, 0.190000
2342, 12.000000, 0.190000
2343, 12.500000, 0.190000
2344, 13.000000, 0.190000
2345, 13.500000, 0.190000
2346, 14.000000, 0.190000
2347, 14.500000, 0.190000
2348, 15.000000, 0.190000
2349, 15.500000, 0.190000
2350, 16.000000, 0.190000
2351, 16.500000, 0.190000
2352, 17.000000, 0.190000
2353, 17.500000, 0.190000
2354, 18.000000, 0.190000
2355, 18.500000, 0.190000
2356, 19.000000, 0.190000
2357, 19.500000, 0.190000
2358, 20.000000, 0.190000
2359, 20.500000, 0.190000
2360, 21.000000, 0.190000
2361, 21.500000, 0.190000
2362, 22.000000, 0.190000
2363, 22.500000, 0.190000
2364, 23.000000, 0.190000
2365, 23.500000, 0.190000
2366, 24.000000, 0.190000
2367, 24.500000, 0.190000
2368, 25.000000, 0.190000
2369, 25.500000, 0.190000
2370, 26.000000, 0.190000
2371, 26.500000, 0.190000
2372, 27.000000, 0.190000
2373, 27.500000, 0.190000
2374, 28.000000, 0.190000
2375, 28.500000, 0.190000
2376, 29.000000, 0.190000
2377, 29.500000, 0.190000
2378, 30.000000, 0.190000
2379, 30.500000, 0.190000
2380, 31.000000, 0.190000
2381, 31.500000, 0.190000
2382, 32.000000, 0.190000
2383, 32.500000, 0.190000
2384, 33.000000, 0.190000
2385, 33.500000, 0.190000
2386, 34.000000, 0.190000
2387, 34.500000, 0.190000
2388, 35.000000, 0.190000
2389, 35.500000, 0.190000
2390, 36.000000, 0.190000
2391, 36.500000, 0.190000
2392, 37.000000, 0.190000
2393, 37.500000, 0.190000
2394, 38.000000, 0.190000
2395, 38.125000, 0.190000
2396, 38.250000, 0.190000
2397, 38.375000, 0.190000
2398, 38.500000, 0.190000
2399, 38.625000, 0.190000
2400, 38.750000, 0.190000
2401, 38.875000, 0.190000
2402, 39.000000, 0.190000
2403, 39.125000, 0.190000
2404, 39.250000, 0.190000
2405, 39.375000, 0.190000
2406, 39.500000, 0.190000
2407, 39.625000, 0.190000
2408, 39.750000, 0.190000
2409, 39.875000, 0.190000
2410, 40.000000, 0.190000
2411, -40.000000, 0.206667
2412, -39.875000, 0.206667
2413, -39.750000, 0.206667
2414, -39.625000, 0.206667
2415, -39.500000, 0.206667
2416, -39.375000, 0.206667
2417, -39.250000, 0.206667
2418, -39.125000, 0.206667
2419, -39.000000, 0.206667
2420, -38.875000, 0.206667
2421, -38.750000, 0.206667
2422, -38.625000, 0.206667
2423, -38.500000, 0.206667
2424, -38.375000, 0.206667
2425, -38.250000, 0.206667
2426, -38.125000, 0.206667
2427, -38.000000, 0.206667
2428, -37.500000, 0.206667
2429, -37.000000, 0.206667
2430, -36.500000, 0.206667
2431, -36.000000, 0.206667
2432, -35.500000, 0.206667
2433, -35.000000, 0.206667
2434, -34.500000, 0.206667
2435, -34.000000, 0.206667
2436, -33.500000, 0.206667
2437, -33.000000, 0.206667
2438, -32.500000, 0.206667
2439, -32.000000, 0.206667
2440, -31.500000, 0.206667
2441, -31.000000, 0.206667
2442, -30.500000, 0.206667
2443, -30.000000, 0.206667
2444, -29.500000, 0.206667
2445, -29.000000, 0.206667
2446, -28.500000, 0.206667
2447, -28.000000, 0.206667
2448, -27.500000, 0.206667
2449, -27.000000, 0.206667
2450, -26.500000, 0.206667
2451, -26.000000, 0.206667
2452, -25.500000, 0.206667
2453, -25.000000, 0.206667
2454, -24.500000, 0.206667
2455, -24.000000, 0.206667
2456, -23.500000, 0.206667
2457, -23.000000, 0.206667
2458, -22.500000, 0.206667
2459, -22.000000, 0.206667
2460, -21.500000, 0.206667
2461, -21.000000, 0.206667
2462, -20.500000, 0.206667
2463, -20.000000, 0.206667
2464, -19.500000, 0.206667
2465, -19.000000, 0.206667
2466, -18.500000, 0.206667
2467, -18.000000, 0.206667
2468, -17.500000, 0.206667
2469, -17.000000, 0.206667
2470, -16.500000, 0.206667
2471, -16.000000, 0.206667
2472, -15.500000, 0.206667
2473, -15.000000, 0.206667
2474, -14.500000, 0.206667
2475, -14.000000, 0.206667
2476, -13.500000, 0.206667
2477, -13.000000, 0.206667
2478, -12.500000, 0.206667
2479, -12.000000, 0.206667
2480, -11.500000, 0.206667
2481, -11.000000, 0.206667
2482, -10.500000, 0.206667
2483, -10.000000, 0.206667
2484, -9.875000, 0.206667
2485, -9.750000, 0.206667
2486, -9.625000, 0.206667
2487, -9.500000, 0.206667
2488, -9.375000, 0.206667
2489, -9.250000, 0.206667
2490, -9.125000, 0.206667
2491, -9.000000, 0.206667
2492, -8.875000, 0.206667
2493, -8.750000, 0.206667
2494, -8.625000, 0.206667
2495, -8.500000, 0.206667
2496, -8.375000, 0.206667
2497, -8.250000, 0.206667
2498, -8.125000, 0.206667
2499, -8.000000, 0.206667
2500, -7.750000, 0.206667
2501, -7.500000, 0.206667
2502, -7.250000, 0.206667
2503, -7.000000, 0.206667
2504, -6.750000, 0.206667
2505, -6.500000, 0.206667
2506, -6.250000, 0.206667
2507, -6.000000, 0.206667
2508, -5.750000, 0.206667
2509, -5.500000, 0.206667
2510, -5.250000, 0.206667
2511, -5.000000, 0.206667
2512, -4.750000, 0.206667
2513, -4.500000, 0.206667
2514, -4.250000, 0.206667
2515, -4.000000, 0.206667
2516, -3.750000, 0.206667
2517, -3.500000, 0.206667
2518, -3.250000, 0.206667
2519, -3.000000, 0.206667
2520, -2.750000, 0.206667
2521, -2.500000, 0.206667
2522, -2.250000, 0.206667
2523, -2.000000, 0.206667
2524, -1.750000, 0.206667
2525, -1.500000, 0.206667
2526, -1.250000, 0.206667
2527, -1.000000, 0.206667
2528, -0.750000, 0.206667
2529, -0.500000, 0.206667
2530, -0.250000, 0.206667
2531, 0.000000, 0.206667
2532, 0.250000, 0.206667
2533, 0.500000, 0.206667
2534, 0.750000, 0.206667
2535, 1.000000, 0.206667
2536, 1.250000, 0.206667
2537, 1.500000, 0.206667
2538, 1.750000, 0.206667
2539, 2.000000, 0.206667
2540, 2.250000, 0.206667
2541, 2.500000, 0.206667
2542, 2.750000, 0.206667
2543, 3.000000, 0.206667
2544, 3.250000, 0.206667
2545, 3.500000, 0.206667
2546, 3.750000, 0.206667
2547, 4.000000, 0.206667
2548, 4.250000, 0.206667
2549, 4.500000, 0.206667
2550, 4.750000, 0.206667
2551, 5.000000, 0.206667
2552, 5.250000, 0.206667
2553, 5.500000, 0.206667
2554, 5.750000, 0.206667
2555, 6.000000, 0.206667
2556, 6.250000, 0.206667
2557, 6.500000, 0.206667
2558, 6.750000, 0.206667
2559, 7.000000, 0.206667
2560, 7.250000, 0.206667
2561, 7.500000, 0.206667
2562, 7.750000, 0.206667
2563, 8.000000, 0.206667
2564, 8.125000, 0.206667
2565, 8.250000, 0.206667
2566, 8.375000, 0.206667
2567, 8.500000, 0.206667
2568, 8.625000, 0.206667
2569, 8.750000, 0.206667
2570, 8.875000, 0.206667
2571, 9.000000, 0.206667
2572, 9.125000, 0.206667
2573, 9.250000, 0.206667
2574, 9.375000, 0.206667
2575, 9.500000, 0.206667
2576, 9.625000, 0.206667
2577, 9.750000, 0.206667
2578, 9.875000, 0.206667
2579, 10.000000, 0.206667
2580, 10.500000, 0.206667
2581, 11.000000, 0.206667
2582, 11.500000, 0.206667
2583, 12.000000, 0.206667
2584, 12.500000, 0.206667
2585, 13.000000, 0.206667
2586, 13.500000, 0.206667
2587, 14.000000, 0.206667
2588, 14.500000, 0.206667
2589, 15.000000, 0.206667
2590, 15.500000, 0.206667
2591, 16.000000, 0.206667
2592, 16.500000, 0.206667
2593, 17.000000, 0.206667
2594, 17.500000, 0.206667
2595, 18.000000, 0.206667
2596, 18.500000, 0.206667
2597, 19.000000, 0.206667
2598, 19.500000, 0.206667
2599, 20.000000, 0.206667
2600, 20.500000, 0.206667
2601, 21.000000, 0.206667
2602, 21.500000, 0.206667
2603, 22.000000, 0.206667
2604, 22.500000, 0.206667
2605, 23.000000, 0.206667
2606, 23.500000, 0.206667
2607, 24.000000, 0.206667
2608, 24.500000, 0.206667
2609, 25.000000, 0.206667
2610, 25.500000, 0.206667
2611, 26.000000, 0.206667
2612, 26.500000, 0.206667
2613, 27.000000, 0.206667
2614, 27.500000, 0.206667
2615, 28.000000, 0.206667
2616, 28.500000, 0.206667
2617, 29.000000, 0.206667
2618, 29.500000, 0.206667
2619, 30.000000, 0.206667
2620, 30.500000, 0.206667
2621, 31.000000, 0.206667
2622, 31.500000, 0.206667
2623, 32.000000, 0.206667
2624, 32.500000, 0.206667
2625, 33.000000, 0.206667
2626, 33.500000, 0.206667
2627, 34.000000, 0.206667
2628, 34.500000, 0.206667
2629, 35.000000, 0.206667
2630, 35.500000, 0.206667
2631, 36.000000, 0.206667
2632, 36.500000, 0.206667
2633, 37.000000, 0.206667
2634, 37.500000, 0.206667
2635, 38.000000, 0.206667
2636, 38.125000, 0.206667
2637, 38.250000, 0.206667
2638, 38.375000, 0.206667
2639, 38.500000, 0.206667
2640, 38.625000, 0.206667
2641, 38.750000, 0.206667
2642, 38.875000, 0.206667
2643, 39.000000, 0.206667
2644, 39.125000, 0.206667
2645, 39.250000, 0.206667
2646, 39.375000, 0.206667
2647, 39.500000, 0.206667
2648, 39.625000, 0.206667
2649, 39.750000, 0.206667
2650, 39.875000, 0.206667
2651, 40.000000, 0.206667
2652, -40.000000, 0.223333
2653, -39.875000, 0.223333
2654, -39.750000, 0.223333
2655, -39.625000, 0.223333
2656, -39.500000, 0.223333
2657, -39.375000, 0.223333
2658, -39.250000, 0.223333
2659, -39.125000, 0.223333
2660, -39.000000, 0.223333
2661, -38.875000, 0.223333
2662, -38.750000, 0.223333
2663, -38.625000, 0.223333
2664, -38.500000, 0.223333
2665, -38.375000, 0.223333
2666, -38.250000, 0.223333
2667, -38.125000, 0.223333
2668, -38.000000, 0.223333
2669, -37.500000, 0.223333
2670, -37.000000, 0.223333
2671, -36.500000, 0.223333
2672, -36.000000, 0.223333
2673, -35.500000, 0.223333
2674, -35.000000, 0.223333
2675, -34.500000, 0.223333
2676, -34.000000, 0.223333
2677, -33.500000, 0.223333
2678, -33.000000, 0.223333
2679, -32.500000, 0.223333
2680, -32.000000, 0.223333
2681, -31.500000, 0.223333
2682, -31.000000, 0.223333
2683, -30.500000, 0.223333
2684, -30.000000, 0.223333
2685, -29.500000, 0.223333
2686, -29.000000, 0.223333
2687, -28.500000, 0.223333
2688, -28.000000, 0.223333
2689, -27.500000, 0.223333
2690, -27.000000, 0.223333
2691, -26.500000, 0.223333
2692, -26.000000, 0.223333
2693, -25.500000, 0.223333
2694, -25.000000, 0.223333
2695, -24.500000, 0.223333
2696, -24.000000, 0.223333
2697, -23.500000, 0.223333
2698, -23.000000, 0.223333
2699, -22.500000, 0.223333
2700, -22.000000, 0.223333
2701, -21.500000, 0.223333
2702, -21.000000, 0.223333
2703, -20.500000, 0.223333
2704, -20.000000, 0.223333
2705, -19.500000, 0.223333
2706, -19.000000, 0.223333
2707, -18.500000, 0.223333
2708, -18.000000, 0.223333
2709, -17.500000, 0.223333
2710, -17.000000, 0.223333
2711, -16.500000, 0.223333
2712, -16.000000, 0.223333
2713, -15.500000, 0.223333
2714, -15.000000, 0.223333
2715, -14.500000, 0.223333
2716, -14.000000, 0.223333
2717, -13.500000, 0.223333
2718, -13.000000, 0.223333
2719, -12.500000, 0.223333
2720, -12.000000, 0.223333
2721, -11.500000, 0.223333
2722, -11.000000, 0.223333
2723, -10.500000, 0.223333
2724, -10.000000, 0.223333
2725, -9.875000, 0.223333
2726, -9.750000, 0.223333
2727, -9.625000, 0.223333
2728, -9.500000, 0.223333
2729, -9.375000, 0.223333
2730, -9.250000, 0.223333
2731, -9.125000, 0.223333
2732, -9.000000, 0.223333
2733, -8.875000, 0.223333
2734, -8.750000, 0.223333
2735, -8.625000, 0.223333
2736, -8.500000, 0.223333
2737, -8.375000, 0.223333
2738, -8.250000, 0.223333
2739, -8.125000, 0.223333
2740, -8.000000, 0.223333
2741, -7.750000, 0.223333
2742, -7.500000, 0.223333
2743, -7.250000, 0.223333
2744, -7.000000, 0.223333
2745, -6.750000, 0.223333
2746, -6.500000, 0.223333
2747, -6.250000, 0.223333
2748, -6.000000, 0.223333
2749, -5.750000, 0.223333
2750, -5.500000, 0.223333
2751, -5.250000, 0.223333
2752, -5.000000, 0.223333
2753, -4.750000, 0.223333
2754, -4.500000, 0.223333
2755, -4.250000, 0.223333
2756, -4.000000, 0.223333
2757, -3.750000, 0.223333
2758, -3.500000, 0.223333
2759, -3.250000, 0.223333
2760, -3.000000, 0.223333
2761, -2.750000, 0.223333
2762, -2.500000, 0.223333
2763, -2.250000, 0.223333
2764, -2.000000, 0.223333
2765, -1.750000, 0.223333
2766, -1.500000, 0.223333
2767, -1.250000, 0.223333
2768, -1.000000, 0.223333
2769, -0.750000, 0.223333
2770, -0.500000, 0.223333
2771, -0.250000, 0.223333
2772, 0.000000, 0.223333
2773, 0.250000, 0.223333
2774, 0.500000, 0.223333
2775, 0.750000, 0.223333
2776, 1.000000, 0.223333
2777, 1.250000, 0.223333
2778, 1.500000, 0.223333
2779, 1.750000, 0.223333
2780, 2.000000, 0.223333
2781, 2.250000, 0.223333
2782, 2.500000, 0.223333
2783, 2.750000, 0.223333
2784, 3.000000, 0.223333
2785, 3.250000, 0.223333
2786, 3.500000, 0.223333
2787, 3.750000, 0.223333
2788, 4.000000, 0.223333
2789, 4.250000, 0.223333
2790, 4.500000, 0.223333
2791, 4.750000, 0.223333
2792, 5.000000, 0.223333
2793, 5.250000, 0.223333
2794, 5.500000, 0.223333
2795, 5.750000, 0.223333
2796, 6.000000, 0.223333
2797, 6.250000, 0.223333
2798, 6.500000, 0.223333
2799, 6.750000, 0.223333
2800, 7.000000, 0.223333
2801, 7.250000, 0.223333
2802, 7.500000, 0.223333
2803, 7.750000, 0.223333
2804, 8.000000, 0.223333
2805, 8.125000, 0.223333
2806, 8.250000, 0.223333
2807, 8.375000, 0.223333
2808, 8.500000, 0.223333
2809, 8.625000, 0.223333
2810, 8.750000, 0.223333
2811, 8.875000, 0.223333
2812, 9.000000, 0.223333
2813, 9.125000, 0.223333
2814, 9.250000, 0.223333
2815, 9.375000, 0.223333
2816, 9.500000, 0.223333
2817, 9.625000, 0.223333
2818, 9.750000, 0.223333
2819, 9.875000, 0.223333
2820, 10.000000, 0.223333
2821, 10.500000, 0.223333
2822, 11.000000, 0.223333
2823, 11.500000, 0.223333
2824, 12.000000, 0.223333
2825, 12.500000, 0.223333
2826, 13.000000, 0.223333
2827, 13.500000, 0.223333
2828, 14.000000, 0.223333
2829, 14.500000, 0.223333
2830, 15.000000, 0.223333
2831, 15.500000, 0.223333
2832, 16.000000, 0.223333
2833, 16.500000, 0.223333
2834, 17.000000, 0.223333
2835, 17.500000, 0.223333
2836, 18.000000, 0.223333
2837, 18.500000, 0.223333
2838, 19.000000, 0.223333
2839, 19.500000, 0.223333
2840, 20.000000, 0.223333
2841, 20.500000, 0.223333
2842, 21.000000, 0.223333
2843, 21.500000, 0.223333
2844, 22.000000, 0.223333
2845, 22.500000, 0.223333
2846, 23.000000, 0.223333
2847, 23.500000, 0.223333
2848, 24.000000, 0.223333
2849, 24.500000, 0.223333
2850, 25.000000, 0.223333
2851, 25.500000, 0.223333
2852, 26.000000, 0.223333
2853, 26.500000, 0.223333
2854, 27.000000, 0.223333
2855, 27.500000, 0.223333
2856, 28.000000, 0.223333
2857, 28.500000, 0.223333
2858, 29.000000, 0.223333
2859, 29.500000, 0.223333
2860, 30.000000, 0.223333
2861, 30.500000, 0.223333
2862, 31.000000, 0.223333
2863, 31.500000, 0.223333
2864, 32.000000, 0.223333
2865, 32.500000, 0.223333
2866, 33.000000, 0.223333
2867, 33.500000, 0.223333
2868, 34.000000, 0.223333
2869, 34.500000, 0.223333
2870, 35.000000, 0.223333
2871, 35.500000, 0.223333
2872, 36.000000, 0.223333
2873, 36.500000, 0.223333
2874, 37.000000, 0.223333
2875, 37.500000, 0.223333
2876, 38.000000, 0.223333
2877, 38.125000, 0.223333
2878, 38.250000, 0.223333
2879, 38.375000, 0.223333
2880, 38.500000, 0.223333
2881, 38.625000, 0.223333
2882, 38.750000, 0.223333
2883, 38.875000, 0.223333
2884, 39.000000, 0.223333
2885, 39.125000, 0.223333
2886, 39.250000, 0.223333
2887, 39.375000, 0.223333
2888, 39.500000, 0.223333
2889, 39.625000, 0.223333
2890, 39.750000, 0.223333
2891, 39.875000, 0.223333
2892, 40.000000, 0.223333
2893, -40.000000, 0.240000
2894, -39.875000, 0.240000
2895, -39.750000, 0.240000
2896, -39.625000, 0.240000
2897, -39.500000, 0.240000
2898, -39.375000, 0.240000
2899, -39.250000, 0.240000
2900, -39.125000, 0.240000
2901, -39.000000, 0.240000
2902, -38.875000, 0.240000
2903, -38.750000, 0.240000
2904, -38.625000, 0.240000
2905, -38.500000, 0.240000
2906, -38.375000, 0.240000
2907, -38.250000, 0.240000
2908, -38.125000, 0.240000
2909, -38.000000, 0.240000
2910, -37.500000, 0.240000
2911, -37.000000, 0.240000
2912, -36.500000, 0.240000
2913, -36.000000, 0.240000
2914, -35.500000, 0.240000
2915, -35.000000, 0.240000
2916, -34.500000, 0.240000
2917, -34.000000, 0.240000
2918, -33.500000, 0.240000
2919, -33.000000, 0.240000
2920, -32.500000, 0.240000
2921, -32.000000, 0.240000
2922, -31.500000, 0.240000
2923, -31.000000, 0.240000
2924, -30.500000, 0.240000
2925, -30.000000, 0.240000
2926, -29.500000, 0.240000
2927, -29.000000, 0.240000
2928, -28.500000, 0.240000
2929, -28.000000, 0.240000
2930, -27.500000, 0.240000
2931, -27.000000, 0.240000
2932, -26.500000, 0.240000
2933, -26.000000, 0.240000
2934, -25.500000, 0.240000
2935, -25.000000, 0.240000
2936, -24.500000, 0.240000
2937, -24.000000, 0.240000
2938, -23.500000, 0.240000
2939, -23.000000, 0.240000
2940, -22.500000, 0.240000
2941, -22.000000, 0.240000
2942, -21.500000, 0.240000
2943, -21.000000, 0.240000
2944, -20.500000, 0.240000
2945, -20.000000, 0.240000
2946, -19.500000, 0.240000
2947, -19.000000, 0.240000
2948, -18.500000, 0.240000
2949, -18.000000, 0.240000
2950, -17.500000, 0.240000
2951, -17.000000, 0.240000
2952, -16.500000, 0.240000
2953, -16.000000, 0.240000
2954, -15.500000, 0.240000
2955, -15.000000, 0.240000
2956, -14.500000, 0.240000
2957, -14.000000, 0.240000
2958, -13.500000, 0.240000
2959, -13.000000, 0.240000
2960, -12.500000, 0.240000
2961, -12.000000, 0.240000
2962, -11.500000, 0.240000
2963, -11.000000, 0.240000
2964, -10.500000, 0.240000
2965, -10.000000, 0.240000
2966, -9.875000, 0.240000
2967, -9.750000, 0.240000
2968, -9.625000, 0.240000
2969, -9.500000, 0.240000
2970, -9.375000, 0.240000
2971, -9.250000, 0.240000
2972, -9.125000, 0.240000
2973, -9.000000, 0.240000
2974, -8.875000, 0.240000
2975, -8.750000, 0.240000
2976, -8.625000, 0.240000
2977, -8.500000, 0.240000
2978, -8.375000, 0.240000
2979, -8.250000, 0.240000
2980, -8.125000, 0.240000
2981, -8.000000, 0.240000
2982, -7.750000, 0.240000
2983, -7.500000, 0.240000
2984, -7.250000, 0.240000
2985, -7.000000, 0.240000
2986, -6.750000, 0.240000
2987, -6.500000, 0.240000
2988, -6.250000, 0.240000
2989, -6.000000, 0.240000
2990, -5.750000, 0.240000
2991, -5.500000, 0.240000
2992, -5.250000, 0.240000
2993, -5.000000, 0.240000
2994, -4.750000, 0.240000
2995, -4.500000, 0.240000
2996, -4.250000, 0.240000
2997, -4.000000, 0.240000
2998, -3.750000, 0.240000
2999, -3.500000, 0.240000
3000, -3.250000, 0.240000
3001, -3.000000, 0.240000
3002, -2.750000, 0.240000
3003, -2.500000, 0.240000
3004, -2.250000, 0.240000
3005, -2.000000, 0.240000
3006, -1.750000, 0.240000
3007, -1.500000, 0.240000
3008, -1.250000, 0.240000
3009, -1.000000, 0.240000
3010, -0.750000, 0.240000
3011, -0.500000, 0.240000
3012, -0.250000, 0.240000
3013, 0.000000, 0.240000
3014, 0.250000, 0.240000
3015, 0.500000, 0.240000
3016, 0.750000, 0.240000
3017, 1.000000, 0.240000
3018, 1.250000, 0.240000
3019, 1.500000, 0.240000
3020, 1.750000, 0.240000
3021, 2.000000, 0.240000
3022, 2.250000, 0.240000
3023, 2.500000, 0.240000
3024, 2.750000, 0.240000
3025, 3.000000, 0.240000
3026, 3.250000, 0.240000
3027, 3.500000, 0.240000
3028, 3.750000, 0.240000
3029, 4.000000, 0.240000
3030, 4.250000, 0.240000
3031, 4.500000, 0.240000
3032, 4.750000, 0.240000
3033, 5.000000, 0.240000
3034, 5.250000, 0.240000
3035, 5.500000, 0.240000
3036, 5.750000, 0.240000
3037, 6.000000, 0.240000
3038, 6.250000, 0.240000
3039, 6.500000, 0.240000
3040, 6.750000, 0.240000
3041, 7.000000, 0.240000
3042, 7.250000, 0.240000
3043, 7.500000, 0.240000
3044, 7.750000, 0.240000
3045, 8.000000, 0.240000
3046, 8.125000, 0.240000
3047, 8.250000, 0.240000
3048, 8.375000, 0.240000
3049, 8.500000, 0.240000
3050, 8.625000, 0.240000
3051, 8.750000, 0.240000
3052, 8.875000, 0.240000
3053, 9.000000, 0.240000
3054, 9.125000, 0.240000
3055, 9.250000, 0.240000
3056, 9.375000, 0.240000
3057, 9.500000, 0.240000
3058, 9.625000, 0.240000
3059, 9.750000, 0.240000
3060, 9.875000, 0.240000
3061, 10.000000, 0.240000
3062, 10.500000, 0.240000
3063, 11.000000, 0.240000
3064, 11.500000, 0.240000
3065, 12.000000, 0.240000
3066, 12.500000, 0.240000
3067, 13.000000, 0.240000
3068, 13.500000, 0.240000
3069, 14.000000, 0.240000
3070, 14.500000, 0.240000
3071, 15.000000, 0.240000
3072, 15.500000, 0.240000
3073, 16.000000, 0.240000
3074, 16.500000, 0.240000
3075, 17.000000, 0.240000
3076, 17.500000, 0.240000
3077, 18.000000, 0.240000
3078, 18.500000, 0.240000
3079, 19.000000, 0.240000
3080, 19.500000, 0.240000
3081, 20.000000, 0.240000
3082, 20.500000, 0.240000
3083, 21.000000, 0.240000
3084, 21.500000, 0.240000
3085, 22.000000, 0.240000
3086, 22.500000, 0.240000
3087, 23.000000, 0.240000
3088, 23.500000, 0.240000
3089, 24.000000, 0.240000
3090, 24.500000, 0.240000
3091, 25.000000, 0.240000
3092, 25.500000, 0.240000
3093, 26.000000, 0.240000
3094, 26.500000, 0.240000
3095, 27.000000, 0.240000
3096, 27.500000, 0.240000
3097, 28.000000, 0.240000
3098, 28.500000, 0.240000
3099, 29.000000, 0.240000
3100, 29.500000, 0.240000
3101, 30.000000, 0.240000
3102, 30.500000, 0.240000
3103, 31.000000, 0.240000
3104, 31.500000, 0.240000
3105, 32.000000, 0.240000
3106, 32.500000, 0.240000
3107, 33.000000, 0.240000
3108, 33.500000, 0.240000
3109, 34.000000, 0.240000
3110, 34.500000, 0.240000
3111, 35.000000, 0.240000
3112, 35.500000, 0.240000
3113, 36.000000, 0.240000
3114, 36.500000, 0.240000
3115, 37.000000, 0.240000
3116, 37.500000, 0.240000
3117, 38.000000, 0.240000
3118, 38.125000, 0.240000
3119, 38.250000, 0.240000
3120, 38.375000, 0.240000
3121, 38.500000, 0.240000
3122, 38.625000, 0.240000
3123, 38.750000, 0.240000
3124, 38.875000, 0.240000
3125, 39.000000, 0.240000
3126, 39.125000, 0.240000
3127, 39.250000, 0.240000
3128, 39.375000, 0.240000
3129, 39.500000, 0.240000
3130, 39.625000, 0.240000
3131, 39.750000, 0.240000
3132, 39.875000, 0.240000
3133, 40.000000, 0.240000
10000, -3.000000, 0.000000
10001, -40.000000, -0.500000
10002, -39.500000, -0.500000
10003, -39.000000, -0.500000
10004, -38.500000, -0.500000
10005, -38.000000, -0.500000
10006, -37.500000, -0.500000
10007, -37.000000, -0.500000
10008, -36.500000, -0.500000
10009, -36.000000, -0.500000
10010, -35.500000, -0.500000
10011, -35.000000, -0.500000
10012, -34.500000, -0.500000
10013, -34.000000, -0.500000
10014, -33.500000, -0.500000
10015, -33.000000, -0.500000
10016, -32.500000, -0.500000
10017, -32.000000, -0.500000
10018, -31.500000, -0.500000
10019, -31.000000, -0.500000
10020, -30.500000, -0.500000
10021, -30.000000, -0.500000
10022, -29.500000, -0.500000
10023, -29.000000, -0.500000
10024, -28.500000, -0.500000
10025, -28.000000, -0.500000
10026, -27.500000, -0.500000
10027, -27.000000, -0.500000
10028, -26.500000, -0.500000
10029, -26.000000, -0.500000
10030, -25.500000, -0.500000
10031, -25.000000, -0.500000
10032, -24.500000, -0.500000
10033, -24.000000, -0.500000
10034, -23.500000, -0.500000
10035, -23.000000, -0.500000
10036, -22.500000, -0.500000
10037, -22.000000, -0.500000
10038, -21.500000, -0.500000
10039, -21.000000, -0.500000
10040, -20.500000, -0.500000
10041, -20.000000, -0.500000
10042, -19.500000, -0.500000
10043, -19.000000, -0.500000
10044, -18.500000, -0.500000
10045, -18.000000, -0.500000
10046, -17.500000, -0.500000
10047, -17.000000, -0.500000
10048, -16.500000, -0.500000
10049, -16.000000, -0.500000
10050, -15.500000, -0.500000
10051, -15.000000, -0.500000
10052, -14.500000, -0.500000
10053, -14.000000, -0.500000
10054, -13.500000, -0.500000
10055, -13.000000, -0.500000
10056, -12.500000, -0.500000
10057, -12.000000, -0.500000
10058, -11.500000, -0.500000
10059, -11.000000, -0.500000
10060, -10.500000, -0.500000
10061, -10.000000, -0.500000
10062, -40.000000, -0.250000
10063, -39.500000, -0.250000
10064, -39.000000, -0.250000
10065, -38.500000, -0.250000
10066, -38.000000, -0.250000
10067, -37.500000, -0.250000
10068, -37.000000, -0.250000
10069, -36.500000, -0.250000
10070, -36.000000, -0.250000
10071, -35.500000, -0.250000
10072, -35.000000, -0.250000
10073, -34.500000, -0.250000
10074, -34.000000, -0.250000
10075, -33.500000, -0.250000
10076, -33.000000, -0.250000
10077, -32.500000, -0.250000
10078, -32.000000, -0.250000
10079, -31.500000, -0.250000
10080, -31.000000, -0.250000
10081, -30.500000, -0.250000
10082, -30.000000, -0.250000
10083, -29.500000, -0.250000
10084, -29.000000, -0.250000
10085, -28.500000, -0.250000
10086, -28.000000, -0.250000
10087, -27.500000, -0.250000
10088, -27.000000, -0.250000
10089, -26.500000, -0.250000
10090, -26.000000, -0.250000
10091, -25.500000, -0.250000
10092, -25.000000, -0.250000
10093, -24.500000, -0.250000
10094, -24.000000, -0.250000
10095, -23.500000, -0.250000
10096, -23.000000, -0.250000
10097, -22.500000, -0.250000
10098, -22.000000, -0.250000
10099, -21.500000, -0.250000
10100, -21.000000, -0.250000
10101, -20.500000, -0.250000
10102, -20.000000, -0.250000
10103, -19.500000, -0.250000
10104, -19.000000, -0.250000
10105, -18.500000, -0.250000
10106, -18.000000, -0.250000
10107, -17.500000, -0.250000
10108, -17.000000, -0.250000
10109, -16.500000, -0.250000
10110, -16.000000, -0.250000
10111, -15.500000, -0.250000
10112, -15.000000, -0.250000
10113, -14.500000, -0.250000
10114, -14.000000, -0.250000
10115, -13.500000, -0.250000
10116, -13.000000, -0.250000
10117, -12.500000, -0.250000
10118, -12.000000, -0.250000
10119, -11.500000, -0.250000
10120, -11.000000, -0.250000
10121, -10.500000, -0.250000
10122, -10.000000, -0.250000
10123, -40.000000, 0.000000
10124, -39.500000, 0.000000
10125, -39.000000, 0.000000
10126, -38.500000, 0.000000
10127, -38.000000, 0.000000
10128, -37.500000, 0.000000
10129, -37.000000, 0.000000
10130, -36.500000, 0.000000
10131, -36.000000, 0.000000
10132, -35.500000, 0.000000
10133, -35.000000, 0.000000
10134, -34.500000, 0.000000
10135, -34.000000, 0.000000
10136, -33.500000, 0.000000
10137, -33.000000, 0.000000
10138, -32.500000, 0.000000
10139, -32.000000, 0.000000
10140, -31.500000, 0.000000
10141, -31.000000, 0.000000
10142, -30.500000, 0.000000
10143, -30.000000, 0.000000
10144, -29.500000, 0.000000
10145, -29.000000, 0.000000
10146, -28.500000, 0.000000
10147, -28.000000, 0.000000
10148, -27.500000, 0.000000
10149, -27.000000, 0.000000
10150, -26.500000, 0.000000
10151, -26.000000, 0.000000
10152, -25.500000, 0.000000
10153, -25.000000, 0.000000
10154, -24.500000, 0.000000
10155, -24.000000, 0.000000
10156, -23.500000, 0.000000
10157, -23.000000, 0.000000
10158, -22.500000, 0.000000
10159, -22.000000, 0.000000
10160, -21.500000, 0.000000
10161, -21.000000, 0.000000
10162, -20.500000, 0.000000
10163, -20.000000, 0.000000
10164, -19.500000, 0.000000
10165, -19.000000, 0.000000
10166, -18.500000, 0.000000
10167, -18.000000, 0.000000
10168, -17.500000, 0.000000
10169, -17.000000, 0.000000
10170, -16.500000, 0.000000
10171, -16.000000, 0.000000
10172, -15.500000, 0.000000
10173, -15.000000, 0.000000
10174, -14.500000, 0.000000
10175, -14.000000, 0.000000
10176, -13.500000, 0.000000
10177, -13.000000, 0.000000
10178, -12.500000, 0.000000
10179, -12.000000, 0.000000
10180, -11.500000, 0.000000
10181, -11.000000, 0.000000
10182, -10.500000, 0.000000
10183, -10.000000, 0.000000
10184, 3.000000, 0.000000
10185, 10.000000, -0.500000
10186, 10.500000, -0.500000
10187, 11.000000, -0.500000
10188, 11.500000, -0.500000
10189, 12.000000, -0.500000
10190, 12.500000, -0.500000
10191, 13.000000, -0.500000
10192, 13.500000, -0.500000
10193, 14.000000, -0.500000
10194, 14.500000, -0.500000
10195, 15.000000, -0.500000
10196, 15.500000, -0.500000
10197, 16.000000, -0.500000
10198, 16.500000, -0.500000
10199, 17.000000, -0.500000
10200, 17.500000, -0.500000
10201, 18.000000, -0.500000
10202, 18.500000, -0.500000
10203, 19.000000, -0.500000
10204, 19.500000, -0.500000
10205, 20.000000, -0.500000
10206, 20.500000, -0.500000
10207, 21.000000, -0.500000
10208, 21.500000, -0.500000
10209, 22.000000, -0.500000
10210, 22.500000, -0.500000
10211, 23.000000, -0.500000
10212, 23.500000, -0.500000
10213, 24.000000, -0.500000
10214, 24.500000, -0.500000
10215, 25.000000, -0.500000
10216, 25.500000, -0.500000
10217, 26.000000, -0.500000
10218, 26.500000, -0.500000
10219, 27.000000, -0.500000
10220, 27.500000, -0.500000
10221, 28.000000, -0.500000
10222, 28.500000, -0.500000
10223, 29.000000, -0.500000
10224, 29.500000, -0.500000
10225, 30.000000, -0.500000
10226, 30.500000, -0.500000
10227, 31.000000, -0.500000
10228, 31.500000, -0.500000
10229, 32.000000, -0.500000
10230, 32.500000, -0.500000
10231, 33.000000, -0.500000
10232, 33.500000, -0.500000
10233, 34.000000, -0.500000
10234, 34.500000, -0.500000
10235, 35.000000, -0.500000
10236, 35.500000, -0.500000
10237, 36.000000, -0.500000
10238, 36.500000, -0.500000
10239, 37.000000, -0.500000
10240, 37.500000, -0.500000
10241, 38.000000, -0.500000
10242, 38.500000, -0.500000
10243, 39.000000, -0.500000
10244, 39.500000, -0.500000
10245, 40.000000, -0.500000
10246, 10.000000, -0.250000
10247, 10.500000, -0.250000
10248, 11.000000, -0.250000
10249, 11.500000, -0.250000
10250, 12.000000, -0.250000
10251, 12.500000, -0.250000
10252, 13.000000, -0.250000
10253, 13.500000, -0.250000
10254, 14.000000, -0.250000
10255, 14.500000, -0.250000
10256, 15.000000, -0.250000
10257, 15.500000, -0.250000
10258, 16.000000, -0.250000
10259, 16.500000, -0.250000
10260, 17.000000, -0.250000
10261, 17.500000, -0.250000
10262, 18.000000, -0.250000
10263, 18.500000, -0.250000
10264, 19.000000, -0.250000
10265, 19.500000, -0.250000
10266, 20.000000, -0.250000
10267, 20.500000, -0.250000
10268, 21.000000, -0.250000
10269, 21.500000, -0.250000
10270, 22.000000, -0.250000
10271, 22.500000, -0.250000
10272, 23.000000, -0.250000
10273, 23.500000, -0.250000
10274, 24.000000, -0.250000
10275, 24.500000, -0.250000
10276, 25.000000, -0.250000
10277, 25.500000, -0.250000
10278, 26.000000, -0.250000
10279, 26.500000, -0.250000
10280, 27.000000, -0.250000
10281, 27.500000, -0.250000
10282, 28.000000, -0.250000
10283, 28.500000, -0.250000
10284, 29.000000, -0.250000
10285, 29.500000, -0.250000
10286, 30.000000, -0.250000
10287, 30.500000, -0.250000
10288, 31.000000, -0.250000
10289, 31.500000, -0.250000
10290, 32.000000, -0.250000
10291, 32.500000, -0.250000
10292, 33.000000, -0.250000
10293, 33.500000, -0.250000
10294, 34.000000, -0.250000
10295, 34.500000, -0.250000
10296, 35.000000, -0.250000
10297, 35.500000, -0.250000
10298, 36.000000, -0.250000
10299, 36.500000, -0.250000
10300, 37.000000, -0.250000
10301, 37.500000, -0.250000
10302, 38.000000, -0.250000
10303, 38.500000, -0.250000
10304, 39.000000, -0.250000
10305, 39.500000, -0.250000
10306, 40.000000, -0.250000
10307, 10.000000, 0.000000
10308, 10.500000, 0.000000
10309, 11.000000, 0.000000
10310, 11.500000, 0.000000
10311, 12.000000, 0.000000
10312, 12.500000, 0.000000
10313, 13.000000, 0.000000
10314, 13.500000, 0.000000
10315, 14.000000, 0.000000
10316, 14.500000, 0.000000
10317, 15.000000, 0.000000
10318, 15.500000, 0.000000
10319, 16.000000, 0.000000
10320, 16.500000, 0.000000
10321, 17.000000, 0.000000
10322, 17.500000, 0.000000
10323, 18.000000, 0.000000
10324, 18.500000, 0.000000
10325, 19.000000, 0.000000
10326, 19.500000, 0.000000
10327, 20.000000, 0.000000
10328, 20.500000, 0.000000
10329, 21.000000, 0.000000
10330, 21.500000, 0.000000
10331, 22.000000, 0.000000
10332, 22.500000, 0.000000
10333, 23.000000, 0.000000
10334, 23.500000, 0.000000
10335, 24.000000, 0.000000
10336, 24.500000, 0.000000
10337, 25.000000, 0.000000
10338, 25.500000, 0.000000
10339, 26.000000, 0.000000
10340, 26.500000, 0.000000
10341, 27.000000, 0.000000
10342, 27.500000, 0.000000
10343, 28.000000, 0.000000
10344, 28.500000, 0.000000
10345, 29.000000, 0.000000
10346, 29.500000, 0.000000
10347, 30.000000, 0.000000
10348, 30.500000, 0.000000
10349, 31.000000, 0.000000
10350, 31.500000, 0.000000
10351, 32.000000, 0.000000
10352, 32.500000, 0.000000
10353, 33.000000, 0.000000
10354, 33.500000, 0.000000
10355, 34.000000, 0.000000
10356, 34.500000, 0.000000
10357, 35.000000, 0.000000
10358, 35.500000, 0.000000
10359, 36.000000, 0.000000
10360, 36.500000, 0.000000
10361, 37.000000, 0.000000
10362, 37.500000, 0.000000
10363, 38.000000, 0.000000
10364, 38.500000, 0.000000
10365, 39.000000, 0.000000
10366, 39.500000, 0.000000
10367, 40.000000, 0.000000
**
*ELEMENT, TYPE=CPE4, ELSET=DISP_LAYER01
1, 1, 2, 243, 242
2, 2, 3, 244, 243
3, 3, 4, 245, 244
4, 4, 5, 246, 245
5, 5, 6, 247, 246
6, 6, 7, 248, 247
7, 7, 8, 249, 248
8, 8, 9, 250, 249
9, 9, 10, 251, 250
10, 10, 11, 252, 251
11, 11, 12, 253, 252
12, 12, 13, 254, 253
13, 13, 14, 255, 254
14, 14, 15, 256, 255
15, 15, 16, 257, 256
16, 16, 17, 258, 257
17, 17, 18, 259, 258
18, 18, 19, 260, 259
19, 19, 20, 261, 260
20, 20, 21, 262, 261
21, 21, 22, 263, 262
22, 22, 23, 264, 263
23, 23, 24, 265, 264
24, 24, 25, 266, 265
25, 25, 26, 267, 266
26, 26, 27, 268, 267
27, 27, 28, 269, 268
28, 28, 29, 270, 269
29, 29, 30, 271, 270
30, 30, 31, 272, 271
31, 31, 32, 273, 272
32, 32, 33, 274, 273
33, 33, 34, 275, 274
34, 34, 35, 276, 275
35, 35, 36, 277, 276
36, 36, 37, 278, 277
37, 37, 38, 279, 278
38, 38, 39, 280, 279
39, 39, 40, 281, 280
40, 40, 41, 282, 281
41, 41, 42, 283, 282
42, 42, 43, 284, 283
43, 43, 44, 285, 284
44, 44, 45, 286, 285
45, 45, 46, 287, 286
46, 46, 47, 288, 287
47, 47, 48, 289, 288
48, 48, 49, 290, 289
49, 49, 50, 291, 290
50, 50, 51, 292, 291
51, 51, 52, 293, 292
52, 52, 53, 294, 293
53, 53, 54, 295, 294
54, 54, 55, 296, 295
55, 55, 56, 297, 296
56, 56, 57, 298, 297
57, 57, 58, 299, 298
58, 58, 59, 300, 299
59, 59, 60, 301, 300
60, 60, 61, 302, 301
61, 61, 62, 303, 302
62, 62, 63, 304, 303
63, 63, 64, 305, 304
64, 64, 65, 306, 305
65, 65, 66, 307, 306
66, 66, 67, 308, 307
67, 67, 68, 309, 308
68, 68, 69, 310, 309
69, 69, 70, 311, 310
70, 70, 71, 312, 311
71, 71, 72, 313, 312
72, 72, 73, 314, 313
73, 73, 74, 315, 314
74, 74, 75, 316, 315
75, 75, 76, 317, 316
76, 76, 77, 318, 317
77, 77, 78, 319, 318
78, 78, 79, 320, 319
79, 79, 80, 321, 320
80, 80, 81, 322, 321
81, 81, 82, 323, 322
82, 82, 83, 324, 323
83, 83, 84, 325, 324
84, 84, 85, 326, 325
85, 85, 86, 327, 326
86, 86, 87, 328, 327
87, 87, 88, 329, 328
88, 88, 89, 330, 329
89, 89, 90, 331, 330
90, 90, 91, 332, 331
91, 91, 92, 333, 332
92, 92, 93, 334, 333
93, 93, 94, 335, 334
94, 94, 95, 336, 335
95, 95, 96, 337, 336
96, 96, 97, 338, 337
97, 97, 98, 339, 338
98, 98, 99, 340, 339
99, 99, 100, 341, 340
100, 100, 101, 342, 341
101, 101, 102, 343, 342
102, 102, 103, 344, 343
103, 103, 104, 345, 344
104, 104, 105, 346, 345
105, 105, 106, 347, 346
106, 106, 107, 348, 347
107, 107, 108, 349, 348
108, 108, 109, 350, 349
109, 109, 110, 351, 350
110, 110, 111, 352, 351
111, 111, 112, 353, 352
112, 112, 113, 354, 353
113, 113, 114, 355, 354
114, 114, 115, 356, 355
115, 115, 116, 357, 356
116, 116, 117, 358, 357
117, 117, 118, 359, 358
118, 118, 119, 360, 359
119, 119, 120, 361, 360
120, 120, 121, 362, 361
121, 121, 122, 363, 362
122, 122, 123, 364, 363
123, 123, 124, 365, 364
124, 124, 125, 366, 365
125, 125, 126, 367, 366
126, 126, 127, 368, 367
127, 127, 128, 369, 368
128, 128, 129, 370, 369
129, 129, 130, 371, 370
130, 130, 131, 372, 371
131, 131, 132, 373, 372
132, 132, 133, 374, 373
133, 133, 134, 375, 374
134, 134, 135, 376, 375
135, 135, 136, 377, 376
136, 136, 137, 378, 377
137, 137, 138, 379, 378
138, 138, 139, 380, 379
139, 139, 140, 381, 380
140, 140, 141, 382, 381
141, 141, 142, 383, 382
142, 142, 143, 384, 383
143, 143, 144, 385, 384
144, 144, 145, 386, 385
145, 145, 146, 387, 386
146, 146, 147, 388, 387
147, 147, 148, 389, 388
148, 148, 149, 390, 389
149, 149, 150, 391, 390
150, 150, 151, 392, 391
151, 151, 152, 393, 392
152, 152, 153, 394, 393
153, 153, 154, 395, 394
154, 154, 155, 396, 395
155, 155, 156, 397, 396
156, 156, 157, 398, 397
157, 157, 158, 399, 398
158, 158, 159, 400, 399
159, 159, 160, 401, 400
160, 160, 161, 402, 401
161, 161, 162, 403, 402
162, 162, 163, 404, 403
163, 163, 164, 405, 404
164, 164, 165, 406, 405
165, 165, 166, 407, 406
166, 166, 167, 408, 407
167, 167, 168, 409, 408
168, 168, 169, 410, 409
169, 169, 170, 411, 410
170, 170, 171, 412, 411
171, 171, 172, 413, 412
172, 172, 173, 414, 413
173, 173, 174, 415, 414
174, 174, 175, 416, 415
175, 175, 176, 417, 416
176, 176, 177, 418, 417
177, 177, 178, 419, 418
178, 178, 179, 420, 419
179, 179, 180, 421, 420
180, 180, 181, 422, 421
181, 181, 182, 423, 422
182, 182, 183, 424, 423
183, 183, 184, 425, 424
184, 184, 185, 426, 425
185, 185, 186, 427, 426
186, 186, 187, 428, 427
187, 187, 188, 429, 428
188, 188, 189, 430, 429
189, 189, 190, 431, 430
190, 190, 191, 432, 431
191, 191, 192, 433, 432
192, 192, 193, 434, 433
193, 193, 194, 435, 434
194, 194, 195, 436, 435
195, 195, 196, 437, 436
196, 196, 197, 438, 437
197, 197, 198, 439, 438
198, 198, 199, 440, 439
199, 199, 200, 441, 440
200, 200, 201, 442, 441
201, 201, 202, 443, 442
202, 202, 203, 444, 443
203, 203, 204, 445, 444
204, 204, 205, 446, 445
205, 205, 206, 447, 446
206, 206, 207, 448, 447
207, 207, 208, 449, 448
208, 208, 209, 450, 449
209, 209, 210, 451, 450
210, 210, 211, 452, 451
211, 211, 212, 453, 452
212, 212, 213, 454, 453
213, 213, 214, 455, 454
214, 214, 215, 456, 455
215, 215, 216, 457, 456
216, 216, 217, 458, 457
217, 217, 218, 459, 458
218, 218, 219, 460, 459
219, 219, 220, 461, 460
220, 220, 221, 462, 461
221, 221, 222, 463, 462
222, 222, 223, 464, 463
223, 223, 224, 465, 464
224, 224, 225, 466, 465
225, 225, 226, 467, 466
226, 226, 227, 468, 467
227, 227, 228, 469, 468
228, 228, 229, 470, 469
229, 229, 230, 471, 470
230, 230, 231, 472, 471
231, 231, 232, 473, 472
232, 232, 233, 474, 473
233, 233, 234, 475, 474
234, 234, 235, 476, 475
235, 235, 236, 477, 476
236, 236, 237, 478, 477
237, 237, 238, 479, 478
238, 238, 239, 480, 479
239, 239, 240, 481, 480
240, 240, 241, 482, 481
*ELEMENT, TYPE=CPE4, ELSET=DISP_LAYER02
241, 242, 243, 484, 483
242, 243, 244, 485, 484
243, 244, 245, 486, 485
244, 245, 246, 487, 486
245, 246, 247, 488, 487
246, 247, 248, 489, 488
247, 248, 249, 490, 489
248, 249, 250, 491, 490
249, 250, 251, 492, 491
250, 251, 252, 493, 492
251, 252, 253, 494, 493
252, 253, 254, 495, 494
253, 254, 255, 496, 495
254, 255, 256, 497, 496
255, 256, 257, 498, 497
256, 257, 258, 499, 498
257, 258, 259, 500, 499
258, 259, 260, 501, 500
259, 260, 261, 502, 501
260, 261, 262, 503, 502
261, 262, 263, 504, 503
262, 263, 264, 505, 504
263, 264, 265, 506, 505
264, 265, 266, 507, 506
265, 266, 267, 508, 507
266, 267, 268, 509, 508
267, 268, 269, 510, 509
268, 269, 270, 511, 510
269, 270, 271, 512, 511
270, 271, 272, 513, 512
271, 272, 273, 514, 513
272, 273, 274, 515, 514
273, 274, 275, 516, 515
274, 275, 276, 517, 516
275, 276, 277, 518, 517
276, 277, 278, 519, 518
277, 278, 279, 520, 519
278, 279, 280, 521, 520
279, 280, 281, 522, 521
280, 281, 282, 523, 522
281, 282, 283, 524, 523
282, 283, 284, 525, 524
283, 284, 285, 526, 525
284, 285, 286, 527, 526
285, 286, 287, 528, 527
286, 287, 288, 529, 528
287, 288, 289, 530, 529
288, 289, 290, 531, 530
289, 290, 291, 532, 531
290, 291, 292, 533, 532
291, 292, 293, 534, 533
292, 293, 294, 535, 534
293, 294, 295, 536, 535
294, 295, 296, 537, 536
295, 296, 297, 538, 537
296, 297, 298, 539, 538
297, 298, 299, 540, 539
298, 299, 300, 541, 540
299, 300, 301, 542, 541
300, 301, 302, 543, 542
301, 302, 303, 544, 543
302, 303, 304, 545, 544
303, 304, 305, 546, 545
304, 305, 306, 547, 546
305, 306, 307, 548, 547
306, 307, 308, 549, 548
307, 308, 309, 550, 549
308, 309, 310, 551, 550
309, 310, 311, 552, 551
310, 311, 312, 553, 552
311, 312, 313, 554, 553
312, 313, 314, 555, 554
313, 314, 315, 556, 555
314, 315, 316, 557, 556
315, 316, 317, 558, 557
316, 317, 318, 559, 558
317, 318, 319, 560, 559
318, 319, 320, 561, 560
319, 320, 321, 562, 561
320, 321, 322, 563, 562
321, 322, 323, 564, 563
322, 323, 324, 565, 564
323, 324, 325, 566, 565
324, 325, 326, 567, 566
325, 326, 327, 568, 567
326, 327, 328, 569, 568
327, 328, 329, 570, 569
328, 329, 330, 571, 570
329, 330, 331, 572, 571
330, 331, 332, 573, 572
331, 332, 333, 574, 573
332, 333, 334, 575, 574
333, 334, 335, 576, 575
334, 335, 336, 577, 576
335, 336, 337, 578, 577
336, 337, 338, 579, 578
337, 338, 339, 580, 579
338, 339, 340, 581, 580
339, 340, 341, 582, 581
340, 341, 342, 583, 582
341, 342, 343, 584, 583
342, 343, 344, 585, 584
343, 344, 345, 586, 585
344, 345, 346, 587, 586
345, 346, 347, 588, 587
346, 347, 348, 589, 588
347, 348, 349, 590, 589
348, 349, 350, 591, 590
349, 350, 351, 592, 591
350, 351, 352, 593, 592
351, 352, 353, 594, 593
352, 353, 354, 595, 594
353, 354, 355, 596, 595
354, 355, 356, 597, 596
355, 356, 357, 598, 597
356, 357, 358, 599, 598
357, 358, 359, 600, 599
358, 359, 360, 601, 600
359, 360, 361, 602, 601
360, 361, 362, 603, 602
361, 362, 363, 604, 603
362, 363, 364, 605, 604
363, 364, 365, 606, 605
364, 365, 366, 607, 606
365, 366, 367, 608, 607
366, 367, 368, 609, 608
367, 368, 369, 610, 609
368, 369, 370, 611, 610
369, 370, 371, 612, 611
370, 371, 372, 613, 612
371, 372, 373, 614, 613
372, 373, 374, 615, 614
373, 374, 375, 616, 615
374, 375, 376, 617, 616
375, 376, 377, 618, 617
376, 377, 378, 619, 618
377, 378, 379, 620, 619
378, 379, 380, 621, 620
379, 380, 381, 622, 621
380, 381, 382, 623, 622
381, 382, 383, 624, 623
382, 383, 384, 625, 624
383, 384, 385, 626, 625
384, 385, 386, 627, 626
385, 386, 387, 628, 627
386, 387, 388, 629, 628
387, 388, 389, 630, 629
388, 389, 390, 631, 630
389, 390, 391, 632, 631
390, 391, 392, 633, 632
391, 392, 393, 634, 633
392, 393, 394, 635, 634
393, 394, 395, 636, 635
394, 395, 396, 637, 636
395, 396, 397, 638, 637
396, 397, 398, 639, 638
397, 398, 399, 640, 639
398, 399, 400, 641, 640
399, 400, 401, 642, 641
400, 401, 402, 643, 642
401, 402, 403, 644, 643
402, 403, 404, 645, 644
403, 404, 405, 646, 645
404, 405, 406, 647, 646
405, 406, 407, 648, 647
406, 407, 408, 649, 648
407, 408, 409, 650, 649
408, 409, 410, 651, 650
409, 410, 411, 652, 651
410, 411, 412, 653, 652
411, 412, 413, 654, 653
412, 413, 414, 655, 654
413, 414, 415, 656, 655
414, 415, 416, 657, 656
415, 416, 417, 658, 657
416, 417, 418, 659, 658
417, 418, 419, 660, 659
418, 419, 420, 661, 660
419, 420, 421, 662, 661
420, 421, 422, 663, 662
421, 422, 423, 664, 663
422, 423, 424, 665, 664
423, 424, 425, 666, 665
424, 425, 426, 667, 666
425, 426, 427, 668, 667
426, 427, 428, 669, 668
427, 428, 429, 670, 669
428, 429, 430, 671, 670
429, 430, 431, 672, 671
430, 431, 432, 673, 672
431, 432, 433, 674, 673
432, 433, 434, 675, 674
433, 434, 435, 676, 675
434, 435, 436, 677, 676
435, 436, 437, 678, 677
436, 437, 438, 679, 678
437, 438, 439, 680, 679
438, 439, 440, 681, 680
439, 440, 441, 682, 681
440, 441, 442, 683, 682
441, 442, 443, 684, 683
442, 443, 444, 685, 684
443, 444, 445, 686, 685
444, 445, 446, 687, 686
445, 446, 447, 688, 687
446, 447, 448, 689, 688
447, 448, 449, 690, 689
448, 449, 450, 691, 690
449, 450, 451, 692, 691
450, 451, 452, 693, 692
451, 452, 453, 694, 693
452, 453, 454, 695, 694
453, 454, 455, 696, 695
454, 455, 456, 697, 696
455, 456, 457, 698, 697
456, 457, 458, 699, 698
457, 458, 459, 700, 699
458, 459, 460, 701, 700
459, 460, 461, 702, 701
460, 461, 462, 703, 702
461, 462, 463, 704, 703
462, 463, 464, 705, 704
463, 464, 465, 706, 705
464, 465, 466, 707, 706
465, 466, 467, 708, 707
466, 467, 468, 709, 708
467, 468, 469, 710, 709
468, 469, 470, 711, 710
469, 470, 471, 712, 711
470, 471, 472, 713, 712
471, 472, 473, 714, 713
472, 473, 474, 715, 714
473, 474, 475, 716, 715
474, 475, 476, 717, 716
475, 476, 477, 718, 717
476, 477, 478, 719, 718
477, 478, 479, 720, 719
478, 479, 480, 721, 720
479, 480, 481, 722, 721
480, 481, 482, 723, 722
481, 483, 484, 725, 724
482, 484, 485, 726, 725
483, 485, 486, 727, 726
484, 486, 487, 728, 727
485, 487, 488, 729, 728
486, 488, 489, 730, 729
487, 489, 490, 731, 730
488, 490, 491, 732, 731
489, 491, 492, 733, 732
490, 492, 493, 734, 733
491, 493, 494, 735, 734
492, 494, 495, 736, 735
493, 495, 496, 737, 736
494, 496, 497, 738, 737
495, 497, 498, 739, 738
496, 498, 499, 740, 739
497, 499, 500, 741, 740
498, 500, 501, 742, 741
499, 501, 502, 743, 742
500, 502, 503, 744, 743
501, 503, 504, 745, 744
502, 504, 505, 746, 745
503, 505, 506, 747, 746
504, 506, 507, 748, 747
505, 507, 508, 749, 748
506, 508, 509, 750, 749
507, 509, 510, 751, 750
508, 510, 511, 752, 751
509, 511, 512, 753, 752
510, 512, 513, 754, 753
511, 513, 514, 755, 754
512, 514, 515, 756, 755
513, 515, 516, 757, 756
514, 516, 517, 758, 757
515, 517, 518, 759, 758
516, 518, 519, 760, 759
517, 519, 520, 761, 760
518, 520, 521, 762, 761
519, 521, 522, 763, 762
520, 522, 523, 764, 763
521, 523, 524, 765, 764
522, 524, 525, 766, 765
523, 525, 526, 767, 766
524, 526, 527, 768, 767
525, 527, 528, 769, 768
526, 528, 529, 770, 769
527, 529, 530, 771, 770
528, 530, 531, 772, 771
529, 531, 532, 773, 772
530, 532, 533, 774, 773
531, 533, 534, 775, 774
532, 534, 535, 776, 775
533, 535, 536, 777, 776
534, 536, 537, 778, 777
535, 537, 538, 779, 778
536, 538, 539, 780, 779
537, 539, 540, 781, 780
538, 540, 541, 782, 781
539, 541, 542, 783, 782
540, 542, 543, 784, 783
541, 543, 544, 785, 784
542, 544, 545, 786, 785
543, 545, 546, 787, 786
544, 546, 547, 788, 787
545, 547, 548, 789, 788
546, 548, 549, 790, 789
547, 549, 550, 791, 790
548, 550, 551, 792, 791
549, 551, 552, 793, 792
550, 552, 553, 794, 793
551, 553, 554, 795, 794
552, 554, 555, 796, 795
553, 555, 556, 797, 796
554, 556, 557, 798, 797
555, 557, 558, 799, 798
556, 558, 559, 800, 799
557, 559, 560, 801, 800
558, 560, 561, 802, 801
559, 561, 562, 803, 802
560, 562, 563, 804, 803
561, 563, 564, 805, 804
562, 564, 565, 806, 805
563, 565, 566, 807, 806
564, 566, 567, 808, 807
565, 567, 568, 809, 808
566, 568, 569, 810, 809
567, 569, 570, 811, 810
568, 570, 571, 812, 811
569, 571, 572, 813, 812
570, 572, 573, 814, 813
571, 573, 574, 815, 814
572, 574, 575, 816, 815
573, 575, 576, 817, 816
574, 576, 577, 818, 817
575, 577, 578, 819, 818
576, 578, 579, 820, 819
577, 579, 580, 821, 820
578, 580, 581, 822, 821
579, 581, 582, 823, 822
580, 582, 583, 824, 823
581, 583, 584, 825, 824
582, 584, 585, 826, 825
583, 585, 586, 827, 826
584, 586, 587, 828, 827
585, 587, 588, 829, 828
586, 588, 589, 830, 829
587, 589, 590, 831, 830
588, 590, 591, 832, 831
589, 591, 592, 833, 832
590, 592, 593, 834, 833
591, 593, 594, 835, 834
592, 594, 595, 836, 835
593, 595, 596, 837, 836
594, 596, 597, 838, 837
595, 597, 598, 839, 838
596, 598, 599, 840, 839
597, 599, 600, 841, 840
598, 600, 601, 842, 841
599, 601, 602, 843, 842
600, 602, 603, 844, 843
601, 603, 604, 845, 844
602, 604, 605, 846, 845
603, 605, 606, 847, 846
604, 606, 607, 848, 847
605, 607, 608, 849, 848
606, 608, 609, 850, 849
607, 609, 610, 851, 850
608, 610, 611, 852, 851
609, 611, 612, 853, 852
610, 612, 613, 854, 853
611, 613, 614, 855, 854
612, 614, 615, 856, 855
613, 615, 616, 857, 856
614, 616, 617, 858, 857
615, 617, 618, 859, 858
616, 618, 619, 860, 859
617, 619, 620, 861, 860
618, 620, 621, 862, 861
619, 621, 622, 863, 862
620, 622, 623, 864, 863
621, 623, 624, 865, 864
622, 624, 625, 866, 865
623, 625, 626, 867, 866
624, 626, 627, 868, 867
625, 627, 628, 869, 868
626, 628, 629, 870, 869
627, 629, 630, 871, 870
628, 630, 631, 872, 871
629, 631, 632, 873, 872
630, 632, 633, 874, 873
631, 633, 634, 875, 874
632, 634, 635, 876, 875
633, 635, 636, 877, 876
634, 636, 637, 878, 877
635, 637, 638, 879, 878
636, 638, 639, 880, 879
637, 639, 640, 881, 880
638, 640, 641, 882, 881
639, 641, 642, 883, 882
640, 642, 643, 884, 883
641, 643, 644, 885, 884
642, 644, 645, 886, 885
643, 645, 646, 887, 886
644, 646, 647, 888, 887
645, 647, 648, 889, 888
646, 648, 649, 890, 889
647, 649, 650, 891, 890
648, 650, 651, 892, 891
649, 651, 652, 893, 892
650, 652, 653, 894, 893
651, 653, 654, 895, 894
652, 654, 655, 896, 895
653, 655, 656, 897, 896
654, 656, 657, 898, 897
655, 657, 658, 899, 898
656, 658, 659, 900, 899
657, 659, 660, 901, 900
658, 660, 661, 902, 901
659, 661, 662, 903, 902
660, 662, 663, 904, 903
661, 663, 664, 905, 904
662, 664, 665, 906, 905
663, 665, 666, 907, 906
664, 666, 667, 908, 907
665, 667, 668, 909, 908
666, 668, 669, 910, 909
667, 669, 670, 911, 910
668, 670, 671, 912, 911
669, 671, 672, 913, 912
670, 672, 673, 914, 913
671, 673, 674, 915, 914
672, 674, 675, 916, 915
673, 675, 676, 917, 916
674, 676, 677, 918, 917
675, 677, 678, 919, 918
676, 678, 679, 920, 919
677, 679, 680, 921, 920
678, 680, 681, 922, 921
679, 681, 682, 923, 922
680, 682, 683, 924, 923
681, 683, 684, 925, 924
682, 684, 685, 926, 925
683, 685, 686, 927, 926
684, 686, 687, 928, 927
685, 687, 688, 929, 928
686, 688, 689, 930, 929
687, 689, 690, 931, 930
688, 690, 691, 932, 931
689, 691, 692, 933, 932
690, 692, 693, 934, 933
691, 693, 694, 935, 934
692, 694, 695, 936, 935
693, 695, 696, 937, 936
694, 696, 697, 938, 937
695, 697, 698, 939, 938
696, 698, 699, 940, 939
697, 699, 700, 941, 940
698, 700, 701, 942, 941
699, 701, 702, 943, 942
700, 702, 703, 944, 943
701, 703, 704, 945, 944
702, 704, 705, 946, 945
703, 705, 706, 947, 946
704, 706, 707, 948, 947
705, 707, 708, 949, 948
706, 708, 709, 950, 949
707, 709, 710, 951, 950
708, 710, 711, 952, 951
709, 711, 712, 953, 952
710, 712, 713, 954, 953
711, 713, 714, 955, 954
712, 714, 715, 956, 955
713, 715, 716, 957, 956
714, 716, 717, 958, 957
715, 717, 718, 959, 958
716, 718, 719, 960, 959
717, 719, 720, 961, 960
718, 720, 721, 962, 961
719, 721, 722, 963, 962
720, 722, 723, 964, 963
721, 724, 725, 966, 965
722, 725, 726, 967, 966
723, 726, 727, 968, 967
724, 727, 728, 969, 968
725, 728, 729, 970, 969
726, 729, 730, 971, 970
727, 730, 731, 972, 971
728, 731, 732, 973, 972
729, 732, 733, 974, 973
730, 733, 734, 975, 974
731, 734, 735, 976, 975
732, 735, 736, 977, 976
733, 736, 737, 978, 977
734, 737, 738, 979, 978
735, 738, 739, 980, 979
736, 739, 740, 981, 980
737, 740, 741, 982, 981
738, 741, 742, 983, 982
739, 742, 743, 984, 983
740, 743, 744, 985, 984
741, 744, 745, 986, 985
742, 745, 746, 987, 986
743, 746, 747, 988, 987
744, 747, 748, 989, 988
745, 748, 749, 990, 989
746, 749, 750, 991, 990
747, 750, 751, 992, 991
748, 751, 752, 993, 992
749, 752, 753, 994, 993
750, 753, 754, 995, 994
751, 754, 755, 996, 995
752, 755, 756, 997, 996
753, 756, 757, 998, 997
754, 757, 758, 999, 998
755, 758, 759, 1000, 999
756, 759, 760, 1001, 1000
757, 760, 761, 1002, 1001
758, 761, 762, 1003, 1002
759, 762, 763, 1004, 1003
760, 763, 764, 1005, 1004
761, 764, 765, 1006, 1005
762, 765, 766, 1007, 1006
763, 766, 767, 1008, 1007
764, 767, 768, 1009, 1008
765, 768, 769, 1010, 1009
766, 769, 770, 1011, 1010
767, 770, 771, 1012, 1011
768, 771, 772, 1013, 1012
769, 772, 773, 1014, 1013
770, 773, 774, 1015, 1014
771, 774, 775, 1016, 1015
772, 775, 776, 1017, 1016
773, 776, 777, 1018, 1017
774, 777, 778, 1019, 1018
775, 778, 779, 1020, 1019
776, 779, 780, 1021, 1020
777, 780, 781, 1022, 1021
778, 781, 782, 1023, 1022
779, 782, 783, 1024, 1023
780, 783, 784, 1025, 1024
781, 784, 785, 1026, 1025
782, 785, 786, 1027, 1026
783, 786, 787, 1028, 1027
784, 787, 788, 1029, 1028
785, 788, 789, 1030, 1029
786, 789, 790, 1031, 1030
787, 790, 791, 1032, 1031
788, 791, 792, 1033, 1032
789, 792, 793, 1034, 1033
790, 793, 794, 1035, 1034
791, 794, 795, 1036, 1035
792, 795, 796, 1037, 1036
793, 796, 797, 1038, 1037
794, 797, 798, 1039, 1038
795, 798, 799, 1040, 1039
796, 799, 800, 1041, 1040
797, 800, 801, 1042, 1041
798, 801, 802, 1043, 1042
799, 802, 803, 1044, 1043
800, 803, 804, 1045, 1044
801, 804, 805, 1046, 1045
802, 805, 806, 1047, 1046
803, 806, 807, 1048, 1047
804, 807, 808, 1049, 1048
805, 808, 809, 1050, 1049
806, 809, 810, 1051, 1050
807, 810, 811, 1052, 1051
808, 811, 812, 1053, 1052
809, 812, 813, 1054, 1053
810, 813, 814, 1055, 1054
811, 814, 815, 1056, 1055
812, 815, 816, 1057, 1056
813, 816, 817, 1058, 1057
814, 817, 818, 1059, 1058
815, 818, 819, 1060, 1059
816, 819, 820, 1061, 1060
817, 820, 821, 1062, 1061
818, 821, 822, 1063, 1062
819, 822, 823, 1064, 1063
820, 823, 824, 1065, 1064
821, 824, 825, 1066, 1065
822, 825, 826, 1067, 1066
823, 826, 827, 1068, 1067
824, 827, 828, 1069, 1068
825, 828, 829, 1070, 1069
826, 829, 830, 1071, 1070
827, 830, 831, 1072, 1071
828, 831, 832, 1073, 1072
829, 832, 833, 1074, 1073
830, 833, 834, 1075, 1074
831, 834, 835, 1076, 1075
832, 835, 836, 1077, 1076
833, 836, 837, 1078, 1077
834, 837, 838, 1079, 1078
835, 838, 839, 1080, 1079
836, 839, 840, 1081, 1080
837, 840, 841, 1082, 1081
838, 841, 842, 1083, 1082
839, 842, 843, 1084, 1083
840, 843, 844, 1085, 1084
841, 844, 845, 1086, 1085
842, 845, 846, 1087, 1086
843, 846, 847, 1088, 1087
844, 847, 848, 1089, 1088
845, 848, 849, 1090, 1089
846, 849, 850, 1091, 1090
847, 850, 851, 1092, 1091
848, 851, 852, 1093, 1092
849, 852, 853, 1094, 1093
850, 853, 854, 1095, 1094
851, 854, 855, 1096, 1095
852, 855, 856, 1097, 1096
853, 856, 857, 1098, 1097
854, 857, 858, 1099, 1098
855, 858, 859, 1100, 1099
856, 859, 860, 1101, 1100
857, 860, 861, 1102, 1101
858, 861, 862, 1103, 1102
859, 862, 863, 1104, 1103
860, 863, 864, 1105, 1104
861, 864, 865, 1106, 1105
862, 865, 866, 1107, 1106
863, 866, 867, 1108, 1107
864, 867, 868, 1109, 1108
865, 868, 869, 1110, 1109
866, 869, 870, 1111, 1110
867, 870, 871, 1112, 1111
868, 871, 872, 1113, 1112
869, 872, 873, 1114, 1113
870, 873, 874, 1115, 1114
871, 874, 875, 1116, 1115
872, 875, 876, 1117, 1116
873, 876, 877, 1118, 1117
874, 877, 878, 1119, 1118
875, 878, 879, 1120, 1119
876, 879, 880, 1121, 1120
877, 880, 881, 1122, 1121
878, 881, 882, 1123, 1122
879, 882, 883, 1124, 1123
880, 883, 884, 1125, 1124
881, 884, 885, 1126, 1125
882, 885, 886, 1127, 1126
883, 886, 887, 1128, 1127
884, 887, 888, 1129, 1128
885, 888, 889, 1130, 1129
886, 889, 890, 1131, 1130
887, 890, 891, 1132, 1131
888, 891, 892, 1133, 1132
889, 892, 893, 1134, 1133
890, 893, 894, 1135, 1134
891, 894, 895, 1136, 1135
892, 895, 896, 1137, 1136
893, 896, 897, 1138, 1137
894, 897, 898, 1139, 1138
895, 898, 899, 1140, 1139
896, 899, 900, 1141, 1140
897, 900, 901, 1142, 1141
898, 901, 902, 1143, 1142
899, 902, 903, 1144, 1143
900, 903, 904, 1145, 1144
901, 904, 905, 1146, 1145
902, 905, 906, 1147, 1146
903, 906, 907, 1148, 1147
904, 907, 908, 1149, 1148
905, 908, 909, 1150, 1149
906, 909, 910, 1151, 1150
907, 910, 911, 1152, 1151
908, 911, 912, 1153, 1152
909, 912, 913, 1154, 1153
910, 913, 914, 1155, 1154
911, 914, 915, 1156, 1155
912, 915, 916, 1157, 1156
913, 916, 917, 1158, 1157
914, 917, 918, 1159, 1158
915, 918, 919, 1160, 1159
916, 919, 920, 1161, 1160
917, 920, 921, 1162, 1161
918, 921, 922, 1163, 1162
919, 922, 923, 1164, 1163
920, 923, 924, 1165, 1164
921, 924, 925, 1166, 1165
922, 925, 926, 1167, 1166
923, 926, 927, 1168, 1167
924, 927, 928, 1169, 1168
925, 928, 929, 1170, 1169
926, 929, 930, 1171, 1170
927, 930, 931, 1172, 1171
928, 931, 932, 1173, 1172
929, 932, 933, 1174, 1173
930, 933, 934, 1175, 1174
931, 934, 935, 1176, 1175
932, 935, 936, 1177, 1176
933, 936, 937, 1178, 1177
934, 937, 938, 1179, 1178
935, 938, 939, 1180, 1179
936, 939, 940, 1181, 1180
937, 940, 941, 1182, 1181
938, 941, 942, 1183, 1182
939, 942, 943, 1184, 1183
940, 943, 944, 1185, 1184
941, 944, 945, 1186, 1185
942, 945, 946, 1187, 1186
943, 946, 947, 1188, 1187
944, 947, 948, 1189, 1188
945, 948, 949, 1190, 1189
946, 949, 950, 1191, 1190
947, 950, 951, 1192, 1191
948, 951, 952, 1193, 1192
949, 952, 953, 1194, 1193
950, 953, 954, 1195, 1194
951, 954, 955, 1196, 1195
952, 955, 956, 1197, 1196
953, 956, 957, 1198, 1197
954, 957, 958, 1199, 1198
955, 958, 959, 1200, 1199
956, 959, 960, 1201, 1200
957, 960, 961, 1202, 1201
958, 961, 962, 1203, 1202
959, 962, 963, 1204, 1203
960, 963, 964, 1205, 1204
*ELEMENT, TYPE=CPE4, ELSET=DISP_LAYER03
961, 965, 966, 1207, 1206
962, 966, 967, 1208, 1207
963, 967, 968, 1209, 1208
964, 968, 969, 1210, 1209
965, 969, 970, 1211, 1210
966, 970, 971, 1212, 1211
967, 971, 972, 1213, 1212
968, 972, 973, 1214, 1213
969, 973, 974, 1215, 1214
970, 974, 975, 1216, 1215
971, 975, 976, 1217, 1216
972, 976, 977, 1218, 1217
973, 977, 978, 1219, 1218
974, 978, 979, 1220, 1219
975, 979, 980, 1221, 1220
976, 980, 981, 1222, 1221
977, 981, 982, 1223, 1222
978, 982, 983, 1224, 1223
979, 983, 984, 1225, 1224
980, 984, 985, 1226, 1225
981, 985, 986, 1227, 1226
982, 986, 987, 1228, 1227
983, 987, 988, 1229, 1228
984, 988, 989, 1230, 1229
985, 989, 990, 1231, 1230
986, 990, 991, 1232, 1231
987, 991, 992, 1233, 1232
988, 992, 993, 1234, 1233
989, 993, 994, 1235, 1234
990, 994, 995, 1236, 1235
991, 995, 996, 1237, 1236
992, 996, 997, 1238, 1237
993, 997, 998, 1239, 1238
994, 998, 999, 1240, 1239
995, 999, 1000, 1241, 1240
996, 1000, 1001, 1242, 1241
997, 1001, 1002, 1243, 1242
998, 1002, 1003, 1244, 1243
999, 1003, 1004, 1245, 1244
1000, 1004, 1005, 1246, 1245
1001, 1005, 1006, 1247, 1246
1002, 1006, 1007, 1248, 1247
1003, 1007, 1008, 1249, 1248
1004, 1008, 1009, 1250, 1249
1005, 1009, 1010, 1251, 1250
1006, 1010, 1011, 1252, 1251
1007, 1011, 1012, 1253, 1252
1008, 1012, 1013, 1254, 1253
1009, 1013, 1014, 1255, 1254
1010, 1014, 1015, 1256, 1255
1011, 1015, 1016, 1257, 1256
1012, 1016, 1017, 1258, 1257
1013, 1017, 1018, 1259, 1258
1014, 1018, 1019, 1260, 1259
1015, 1019, 1020, 1261, 1260
1016, 1020, 1021, 1262, 1261
1017, 1021, 1022, 1263, 1262
1018, 1022, 1023, 1264, 1263
1019, 1023, 1024, 1265, 1264
1020, 1024, 1025, 1266, 1265
1021, 1025, 1026, 1267, 1266
1022, 1026, 1027, 1268, 1267
1023, 1027, 1028, 1269, 1268
1024, 1028, 1029, 1270, 1269
1025, 1029, 1030, 1271, 1270
1026, 1030, 1031, 1272, 1271
1027, 1031, 1032, 1273, 1272
1028, 1032, 1033, 1274, 1273
1029, 1033, 1034, 1275, 1274
1030, 1034, 1035, 1276, 1275
1031, 1035, 1036, 1277, 1276
1032, 1036, 1037, 1278, 1277
1033, 1037, 1038, 1279, 1278
1034, 1038, 1039, 1280, 1279
1035, 1039, 1040, 1281, 1280
1036, 1040, 1041, 1282, 1281
1037, 1041, 1042, 1283, 1282
1038, 1042, 1043, 1284, 1283
1039, 1043, 1044, 1285, 1284
1040, 1044, 1045, 1286, 1285
1041, 1045, 1046, 1287, 1286
1042, 1046, 1047, 1288, 1287
1043, 1047, 1048, 1289, 1288
1044, 1048, 1049, 1290, 1289
1045, 1049, 1050, 1291, 1290
1046, 1050, 1051, 1292, 1291
1047, 1051, 1052, 1293, 1292
1048, 1052, 1053, 1294, 1293
1049, 1053, 1054, 1295, 1294
1050, 1054, 1055, 1296, 1295
1051, 1055, 1056, 1297, 1296
1052, 1056, 1057, 1298, 1297
1053, 1057, 1058, 1299, 1298
1054, 1058, 1059, 1300, 1299
1055, 1059, 1060, 1301, 1300
1056, 1060, 1061, 1302, 1301
1057, 1061, 1062, 1303, 1302
1058, 1062, 1063, 1304, 1303
1059, 1063, 1064, 1305, 1304
1060, 1064, 1065, 1306, 1305
1061, 1065, 1066, 1307, 1306
1062, 1066, 1067, 1308, 1307
1063, 1067, 1068, 1309, 1308
1064, 1068, 1069, 1310, 1309
1065, 1069, 1070, 1311, 1310
1066, 1070, 1071, 1312, 1311
1067, 1071, 1072, 1313, 1312
1068, 1072, 1073, 1314, 1313
1069, 1073, 1074, 1315, 1314
1070, 1074, 1075, 1316, 1315
1071, 1075, 1076, 1317, 1316
1072, 1076, 1077, 1318, 1317
1073, 1077, 1078, 1319, 1318
1074, 1078, 1079, 1320, 1319
1075, 1079, 1080, 1321, 1320
1076, 1080, 1081, 1322, 1321
1077, 1081, 1082, 1323, 1322
1078, 1082, 1083, 1324, 1323
1079, 1083, 1084, 1325, 1324
1080, 1084, 1085, 1326, 1325
1081, 1085, 1086, 1327, 1326
1082, 1086, 1087, 1328, 1327
1083, 1087, 1088, 1329, 1328
1084, 1088, 1089, 1330, 1329
1085, 1089, 1090, 1331, 1330
1086, 1090, 1091, 1332, 1331
1087, 1091, 1092, 1333, 1332
1088, 1092, 1093, 1334, 1333
1089, 1093, 1094, 1335, 1334
1090, 1094, 1095, 1336, 1335
1091, 1095, 1096, 1337, 1336
1092, 1096, 1097, 1338, 1337
1093, 1097, 1098, 1339, 1338
1094, 1098, 1099, 1340, 1339
1095, 1099, 1100, 1341, 1340
1096, 1100, 1101, 1342, 1341
1097, 1101, 1102, 1343, 1342
1098, 1102, 1103, 1344, 1343
1099, 1103, 1104, 1345, 1344
1100, 1104, 1105, 1346, 1345
1101, 1105, 1106, 1347, 1346
1102, 1106, 1107, 1348, 1347
1103, 1107, 1108, 1349, 1348
1104, 1108, 1109, 1350, 1349
1105, 1109, 1110, 1351, 1350
1106, 1110, 1111, 1352, 1351
1107, 1111, 1112, 1353, 1352
1108, 1112, 1113, 1354, 1353
1109, 1113, 1114, 1355, 1354
1110, 1114, 1115, 1356, 1355
1111, 1115, 1116, 1357, 1356
1112, 1116, 1117, 1358, 1357
1113, 1117, 1118, 1359, 1358
1114, 1118, 1119, 1360, 1359
1115, 1119, 1120, 1361, 1360
1116, 1120, 1121, 1362, 1361
1117, 1121, 1122, 1363, 1362
1118, 1122, 1123, 1364, 1363
1119, 1123, 1124, 1365, 1364
1120, 1124, 1125, 1366, 1365
1121, 1125, 1126, 1367, 1366
1122, 1126, 1127, 1368, 1367
1123, 1127, 1128, 1369, 1368
1124, 1128, 1129, 1370, 1369
1125, 1129, 1130, 1371, 1370
1126, 1130, 1131, 1372, 1371
1127, 1131, 1132, 1373, 1372
1128, 1132, 1133, 1374, 1373
1129, 1133, 1134, 1375, 1374
1130, 1134, 1135, 1376, 1375
1131, 1135, 1136, 1377, 1376
1132, 1136, 1137, 1378, 1377
1133, 1137, 1138, 1379, 1378
1134, 1138, 1139, 1380, 1379
1135, 1139, 1140, 1381, 1380
1136, 1140, 1141, 1382, 1381
1137, 1141, 1142, 1383, 1382
1138, 1142, 1143, 1384, 1383
1139, 1143, 1144, 1385, 1384
1140, 1144, 1145, 1386, 1385
1141, 1145, 1146, 1387, 1386
1142, 1146, 1147, 1388, 1387
1143, 1147, 1148, 1389, 1388
1144, 1148, 1149, 1390, 1389
1145, 1149, 1150, 1391, 1390
1146, 1150, 1151, 1392, 1391
1147, 1151, 1152, 1393, 1392
1148, 1152, 1153, 1394, 1393
1149, 1153, 1154, 1395, 1394
1150, 1154, 1155, 1396, 1395
1151, 1155, 1156, 1397, 1396
1152, 1156, 1157, 1398, 1397
1153, 1157, 1158, 1399, 1398
1154, 1158, 1159, 1400, 1399
1155, 1159, 1160, 1401, 1400
1156, 1160, 1161, 1402, 1401
1157, 1161, 1162, 1403, 1402
1158, 1162, 1163, 1404, 1403
1159, 1163, 1164, 1405, 1404
1160, 1164, 1165, 1406, 1405
1161, 1165, 1166, 1407, 1406
1162, 1166, 1167, 1408, 1407
1163, 1167, 1168, 1409, 1408
1164, 1168, 1169, 1410, 1409
1165, 1169, 1170, 1411, 1410
1166, 1170, 1171, 1412, 1411
1167, 1171, 1172, 1413, 1412
1168, 1172, 1173, 1414, 1413
1169, 1173, 1174, 1415, 1414
1170, 1174, 1175, 1416, 1415
1171, 1175, 1176, 1417, 1416
1172, 1176, 1177, 1418, 1417
1173, 1177, 1178, 1419, 1418
1174, 1178, 1179, 1420, 1419
1175, 1179, 1180, 1421, 1420
1176, 1180, 1181, 1422, 1421
1177, 1181, 1182, 1423, 1422
1178, 1182, 1183, 1424, 1423
1179, 1183, 1184, 1425, 1424
1180, 1184, 1185, 1426, 1425
1181, 1185, 1186, 1427, 1426
1182, 1186, 1187, 1428, 1427
1183, 1187, 1188, 1429, 1428
1184, 1188, 1189, 1430, 1429
1185, 1189, 1190, 1431, 1430
1186, 1190, 1191, 1432, 1431
1187, 1191, 1192, 1433, 1432
1188, 1192, 1193, 1434, 1433
1189, 1193, 1194, 1435, 1434
1190, 1194, 1195, 1436, 1435
1191, 1195, 1196, 1437, 1436
1192, 1196, 1197, 1438, 1437
1193, 1197, 1198, 1439, 1438
1194, 1198, 1199, 1440, 1439
1195, 1199, 1200, 1441, 1440
1196, 1200, 1201, 1442, 1441
1197, 1201, 1202, 1443, 1442
1198, 1202, 1203, 1444, 1443
1199, 1203, 1204, 1445, 1444
1200, 1204, 1205, 1446, 1445
*ELEMENT, TYPE=CPE4, ELSET=DISP_LAYER04
1201, 1206, 1207, 1448, 1447
1202, 1207, 1208, 1449, 1448
1203, 1208, 1209, 1450, 1449
1204, 1209, 1210, 1451, 1450
1205, 1210, 1211, 1452, 1451
1206, 1211, 1212, 1453, 1452
1207, 1212, 1213, 1454, 1453
1208, 1213, 1214, 1455, 1454
1209, 1214, 1215, 1456, 1455
1210, 1215, 1216, 1457, 1456
1211, 1216, 1217, 1458, 1457
1212, 1217, 1218, 1459, 1458
1213, 1218, 1219, 1460, 1459
1214, 1219, 1220, 1461, 1460
1215, 1220, 1221, 1462, 1461
1216, 1221, 1222, 1463, 1462
1217, 1222, 1223, 1464, 1463
1218, 1223, 1224, 1465, 1464
1219, 1224, 1225, 1466, 1465
1220, 1225, 1226, 1467, 1466
1221, 1226, 1227, 1468, 1467
1222, 1227, 1228, 1469, 1468
1223, 1228, 1229, 1470, 1469
1224, 1229, 1230, 1471, 1470
1225, 1230, 1231, 1472, 1471
1226, 1231, 1232, 1473, 1472
1227, 1232, 1233, 1474, 1473
1228, 1233, 1234, 1475, 1474
1229, 1234, 1235, 1476, 1475
1230, 1235, 1236, 1477, 1476
1231, 1236, 1237, 1478, 1477
1232, 1237, 1238, 1479, 1478
1233, 1238, 1239, 1480, 1479
1234, 1239, 1240, 1481, 1480
1235, 1240, 1241, 1482, 1481
1236, 1241, 1242, 1483, 1482
1237, 1242, 1243, 1484, 1483
1238, 1243, 1244, 1485, 1484
1239, 1244, 1245, 1486, 1485
1240, 1245, 1246, 1487, 1486
1241, 1246, 1247, 1488, 1487
1242, 1247, 1248, 1489, 1488
1243, 1248, 1249, 1490, 1489
1244, 1249, 1250, 1491, 1490
1245, 1250, 1251, 1492, 1491
1246, 1251, 1252, 1493, 1492
1247, 1252, 1253, 1494, 1493
1248, 1253, 1254, 1495, 1494
1249, 1254, 1255, 1496, 1495
1250, 1255, 1256, 1497, 1496
1251, 1256, 1257, 1498, 1497
1252, 1257, 1258, 1499, 1498
1253, 1258, 1259, 1500, 1499
1254, 1259, 1260, 1501, 1500
1255, 1260, 1261, 1502, 1501
1256, 1261, 1262, 1503, 1502
1257, 1262, 1263, 1504, 1503
1258, 1263, 1264, 1505, 1504
1259, 1264, 1265, 1506, 1505
1260, 1265, 1266, 1507, 1506
1261, 1266, 1267, 1508, 1507
1262, 1267, 1268, 1509, 1508
1263, 1268, 1269, 1510, 1509
1264, 1269, 1270, 1511, 1510
1265, 1270, 1271, 1512, 1511
1266, 1271, 1272, 1513, 1512
1267, 1272, 1273, 1514, 1513
1268, 1273, 1274, 1515, 1514
1269, 1274, 1275, 1516, 1515
1270, 1275, 1276, 1517, 1516
1271, 1276, 1277, 1518, 1517
1272, 1277, 1278, 1519, 1518
1273, 1278, 1279, 1520, 1519
1274, 1279, 1280, 1521, 1520
1275, 1280, 1281, 1522, 1521
1276, 1281, 1282, 1523, 1522
1277, 1282, 1283, 1524, 1523
1278, 1283, 1284, 1525, 1524
1279, 1284, 1285, 1526, 1525
1280, 1285, 1286, 1527, 1526
1281, 1286, 1287, 1528, 1527
1282, 1287, 1288, 1529, 1528
1283, 1288, 1289, 1530, 1529
1284, 1289, 1290, 1531, 1530
1285, 1290, 1291, 1532, 1531
1286, 1291, 1292, 1533, 1532
1287, 1292, 1293, 1534, 1533
1288, 1293, 1294, 1535, 1534
1289, 1294, 1295, 1536, 1535
1290, 1295, 1296, 1537, 1536
1291, 1296, 1297, 1538, 1537
1292, 1297, 1298, 1539, 1538
1293, 1298, 1299, 1540, 1539
1294, 1299, 1300, 1541, 1540
1295, 1300, 1301, 1542, 1541
1296, 1301, 1302, 1543, 1542
1297, 1302, 1303, 1544, 1543
1298, 1303, 1304, 1545, 1544
1299, 1304, 1305, 1546, 1545
1300, 1305, 1306, 1547, 1546
1301, 1306, 1307, 1548, 1547
1302, 1307, 1308, 1549, 1548
1303, 1308, 1309, 1550, 1549
1304, 1309, 1310, 1551, 1550
1305, 1310, 1311, 1552, 1551
1306, 1311, 1312, 1553, 1552
1307, 1312, 1313, 1554, 1553
1308, 1313, 1314, 1555, 1554
1309, 1314, 1315, 1556, 1555
1310, 1315, 1316, 1557, 1556
1311, 1316, 1317, 1558, 1557
1312, 1317, 1318, 1559, 1558
1313, 1318, 1319, 1560, 1559
1314, 1319, 1320, 1561, 1560
1315, 1320, 1321, 1562, 1561
1316, 1321, 1322, 1563, 1562
1317, 1322, 1323, 1564, 1563
1318, 1323, 1324, 1565, 1564
1319, 1324, 1325, 1566, 1565
1320, 1325, 1326, 1567, 1566
1321, 1326, 1327, 1568, 1567
1322, 1327, 1328, 1569, 1568
1323, 1328, 1329, 1570, 1569
1324, 1329, 1330, 1571, 1570
1325, 1330, 1331, 1572, 1571
1326, 1331, 1332, 1573, 1572
1327, 1332, 1333, 1574, 1573
1328, 1333, 1334, 1575, 1574
1329, 1334, 1335, 1576, 1575
1330, 1335, 1336, 1577, 1576
1331, 1336, 1337, 1578, 1577
1332, 1337, 1338, 1579, 1578
1333, 1338, 1339, 1580, 1579
1334, 1339, 1340, 1581, 1580
1335, 1340, 1341, 1582, 1581
1336, 1341, 1342, 1583, 1582
1337, 1342, 1343, 1584, 1583
1338, 1343, 1344, 1585, 1584
1339, 1344, 1345, 1586, 1585
1340, 1345, 1346, 1587, 1586
1341, 1346, 1347, 1588, 1587
1342, 1347, 1348, 1589, 1588
1343, 1348, 1349, 1590, 1589
1344, 1349, 1350, 1591, 1590
1345, 1350, 1351, 1592, 1591
1346, 1351, 1352, 1593, 1592
1347, 1352, 1353, 1594, 1593
1348, 1353, 1354, 1595, 1594
1349, 1354, 1355, 1596, 1595
1350, 1355, 1356, 1597, 1596
1351, 1356, 1357, 1598, 1597
1352, 1357, 1358, 1599, 1598
1353, 1358, 1359, 1600, 1599
1354, 1359, 1360, 1601, 1600
1355, 1360, 1361, 1602, 1601
1356, 1361, 1362, 1603, 1602
1357, 1362, 1363, 1604, 1603
1358, 1363, 1364, 1605, 1604
1359, 1364, 1365, 1606, 1605
1360, 1365, 1366, 1607, 1606
1361, 1366, 1367, 1608, 1607
1362, 1367, 1368, 1609, 1608
1363, 1368, 1369, 1610, 1609
1364, 1369, 1370, 1611, 1610
1365, 1370, 1371, 1612, 1611
1366, 1371, 1372, 1613, 1612
1367, 1372, 1373, 1614, 1613
1368, 1373, 1374, 1615, 1614
1369, 1374, 1375, 1616, 1615
1370, 1375, 1376, 1617, 1616
1371, 1376, 1377, 1618, 1617
1372, 1377, 1378, 1619, 1618
1373, 1378, 1379, 1620, 1619
1374, 1379, 1380, 1621, 1620
1375, 1380, 1381, 1622, 1621
1376, 1381, 1382, 1623, 1622
1377, 1382, 1383, 1624, 1623
1378, 1383, 1384, 1625, 1624
1379, 1384, 1385, 1626, 1625
1380, 1385, 1386, 1627, 1626
1381, 1386, 1387, 1628, 1627
1382, 1387, 1388, 1629, 1628
1383, 1388, 1389, 1630, 1629
1384, 1389, 1390, 1631, 1630
1385, 1390, 1391, 1632, 1631
1386, 1391, 1392, 1633, 1632
1387, 1392, 1393, 1634, 1633
1388, 1393, 1394, 1635, 1634
1389, 1394, 1395, 1636, 1635
1390, 1395, 1396, 1637, 1636
1391, 1396, 1397, 1638, 1637
1392, 1397, 1398, 1639, 1638
1393, 1398, 1399, 1640, 1639
1394, 1399, 1400, 1641, 1640
1395, 1400, 1401, 1642, 1641
1396, 1401, 1402, 1643, 1642
1397, 1402, 1403, 1644, 1643
1398, 1403, 1404, 1645, 1644
1399, 1404, 1405, 1646, 1645
1400, 1405, 1406, 1647, 1646
1401, 1406, 1407, 1648, 1647
1402, 1407, 1408, 1649, 1648
1403, 1408, 1409, 1650, 1649
1404, 1409, 1410, 1651, 1650
1405, 1410, 1411, 1652, 1651
1406, 1411, 1412, 1653, 1652
1407, 1412, 1413, 1654, 1653
1408, 1413, 1414, 1655, 1654
1409, 1414, 1415, 1656, 1655
1410, 1415, 1416, 1657, 1656
1411, 1416, 1417, 1658, 1657
1412, 1417, 1418, 1659, 1658
1413, 1418, 1419, 1660, 1659
1414, 1419, 1420, 1661, 1660
1415, 1420, 1421, 1662, 1661
1416, 1421, 1422, 1663, 1662
1417, 1422, 1423, 1664, 1663
1418, 1423, 1424, 1665, 1664
1419, 1424, 1425, 1666, 1665
1420, 1425, 1426, 1667, 1666
1421, 1426, 1427, 1668, 1667
1422, 1427, 1428, 1669, 1668
1423, 1428, 1429, 1670, 1669
1424, 1429, 1430, 1671, 1670
1425, 1430, 1431, 1672, 1671
1426, 1431, 1432, 1673, 1672
1427, 1432, 1433, 1674, 1673
1428, 1433, 1434, 1675, 1674
1429, 1434, 1435, 1676, 1675
1430, 1435, 1436, 1677, 1676
1431, 1436, 1437, 1678, 1677
1432, 1437, 1438, 1679, 1678
1433, 1438, 1439, 1680, 1679
1434, 1439, 1440, 1681, 1680
1435, 1440, 1441, 1682, 1681
1436, 1441, 1442, 1683, 1682
1437, 1442, 1443, 1684, 1683
1438, 1443, 1444, 1685, 1684
1439, 1444, 1445, 1686, 1685
1440, 1445, 1446, 1687, 1686
1441, 1447, 1448, 1689, 1688
1442, 1448, 1449, 1690, 1689
1443, 1449, 1450, 1691, 1690
1444, 1450, 1451, 1692, 1691
1445, 1451, 1452, 1693, 1692
1446, 1452, 1453, 1694, 1693
1447, 1453, 1454, 1695, 1694
1448, 1454, 1455, 1696, 1695
1449, 1455, 1456, 1697, 1696
1450, 1456, 1457, 1698, 1697
1451, 1457, 1458, 1699, 1698
1452, 1458, 1459, 1700, 1699
1453, 1459, 1460, 1701, 1700
1454, 1460, 1461, 1702, 1701
1455, 1461, 1462, 1703, 1702
1456, 1462, 1463, 1704, 1703
1457, 1463, 1464, 1705, 1704
1458, 1464, 1465, 1706, 1705
1459, 1465, 1466, 1707, 1706
1460, 1466, 1467, 1708, 1707
1461, 1467, 1468, 1709, 1708
1462, 1468, 1469, 1710, 1709
1463, 1469, 1470, 1711, 1710
1464, 1470, 1471, 1712, 1711
1465, 1471, 1472, 1713, 1712
1466, 1472, 1473, 1714, 1713
1467, 1473, 1474, 1715, 1714
1468, 1474, 1475, 1716, 1715
1469, 1475, 1476, 1717, 1716
1470, 1476, 1477, 1718, 1717
1471, 1477, 1478, 1719, 1718
1472, 1478, 1479, 1720, 1719
1473, 1479, 1480, 1721, 1720
1474, 1480, 1481, 1722, 1721
1475, 1481, 1482, 1723, 1722
1476, 1482, 1483, 1724, 1723
1477, 1483, 1484, 1725, 1724
1478, 1484, 1485, 1726, 1725
1479, 1485, 1486, 1727, 1726
1480, 1486, 1487, 1728, 1727
1481, 1487, 1488, 1729, 1728
1482, 1488, 1489, 1730, 1729
1483, 1489, 1490, 1731, 1730
1484, 1490, 1491, 1732, 1731
1485, 1491, 1492, 1733, 1732
1486, 1492, 1493, 1734, 1733
1487, 1493, 1494, 1735, 1734
1488, 1494, 1495, 1736, 1735
1489, 1495, 1496, 1737, 1736
1490, 1496, 1497, 1738, 1737
1491, 1497, 1498, 1739, 1738
1492, 1498, 1499, 1740, 1739
1493, 1499, 1500, 1741, 1740
1494, 1500, 1501, 1742, 1741
1495, 1501, 1502, 1743, 1742
1496, 1502, 1503, 1744, 1743
1497, 1503, 1504, 1745, 1744
1498, 1504, 1505, 1746, 1745
1499, 1505, 1506, 1747, 1746
1500, 1506, 1507, 1748, 1747
1501, 1507, 1508, 1749, 1748
1502, 1508, 1509, 1750, 1749
1503, 1509, 1510, 1751, 1750
1504, 1510, 1511, 1752, 1751
1505, 1511, 1512, 1753, 1752
1506, 1512, 1513, 1754, 1753
1507, 1513, 1514, 1755, 1754
1508, 1514, 1515, 1756, 1755
1509, 1515, 1516, 1757, 1756
1510, 1516, 1517, 1758, 1757
1511, 1517, 1518, 1759, 1758
1512, 1518, 1519, 1760, 1759
1513, 1519, 1520, 1761, 1760
1514, 1520, 1521, 1762, 1761
1515, 1521, 1522, 1763, 1762
1516, 1522, 1523, 1764, 1763
1517, 1523, 1524, 1765, 1764
1518, 1524, 1525, 1766, 1765
1519, 1525, 1526, 1767, 1766
1520, 1526, 1527, 1768, 1767
1521, 1527, 1528, 1769, 1768
1522, 1528, 1529, 1770, 1769
1523, 1529, 1530, 1771, 1770
1524, 1530, 1531, 1772, 1771
1525, 1531, 1532, 1773, 1772
1526, 1532, 1533, 1774, 1773
1527, 1533, 1534, 1775, 1774
1528, 1534, 1535, 1776, 1775
1529, 1535, 1536, 1777, 1776
1530, 1536, 1537, 1778, 1777
1531, 1537, 1538, 1779, 1778
1532, 1538, 1539, 1780, 1779
1533, 1539, 1540, 1781, 1780
1534, 1540, 1541, 1782, 1781
1535, 1541, 1542, 1783, 1782
1536, 1542, 1543, 1784, 1783
1537, 1543, 1544, 1785, 1784
1538, 1544, 1545, 1786, 1785
1539, 1545, 1546, 1787, 1786
1540, 1546, 1547, 1788, 1787
1541, 1547, 1548, 1789, 1788
1542, 1548, 1549, 1790, 1789
1543, 1549, 1550, 1791, 1790
1544, 1550, 1551, 1792, 1791
1545, 1551, 1552, 1793, 1792
1546, 1552, 1553, 1794, 1793
1547, 1553, 1554, 1795, 1794
1548, 1554, 1555, 1796, 1795
1549, 1555, 1556, 1797, 1796
1550, 1556, 1557, 1798, 1797
1551, 1557, 1558, 1799, 1798
1552, 1558, 1559, 1800, 1799
1553, 1559, 1560, 1801, 1800
1554, 1560, 1561, 1802, 1801
1555, 1561, 1562, 1803, 1802
1556, 1562, 1563, 1804, 1803
1557, 1563, 1564, 1805, 1804
1558, 1564, 1565, 1806, 1805
1559, 1565, 1566, 1807, 1806
1560, 1566, 1567, 1808, 1807
1561, 1567, 1568, 1809, 1808
1562, 1568, 1569, 1810, 1809
1563, 1569, 1570, 1811, 1810
1564, 1570, 1571, 1812, 1811
1565, 1571, 1572, 1813, 1812
1566, 1572, 1573, 1814, 1813
1567, 1573, 1574, 1815, 1814
1568, 1574, 1575, 1816, 1815
1569, 1575, 1576, 1817, 1816
1570, 1576, 1577, 1818, 1817
1571, 1577, 1578, 1819, 1818
1572, 1578, 1579, 1820, 1819
1573, 1579, 1580, 1821, 1820
1574, 1580, 1581, 1822, 1821
1575, 1581, 1582, 1823, 1822
1576, 1582, 1583, 1824, 1823
1577, 1583, 1584, 1825, 1824
1578, 1584, 1585, 1826, 1825
1579, 1585, 1586, 1827, 1826
1580, 1586, 1587, 1828, 1827
1581, 1587, 1588, 1829, 1828
1582, 1588, 1589, 1830, 1829
1583, 1589, 1590, 1831, 1830
1584, 1590, 1591, 1832, 1831
1585, 1591, 1592, 1833, 1832
1586, 1592, 1593, 1834, 1833
1587, 1593, 1594, 1835, 1834
1588, 1594, 1595, 1836, 1835
1589, 1595, 1596, 1837, 1836
1590, 1596, 1597, 1838, 1837
1591, 1597, 1598, 1839, 1838
1592, 1598, 1599, 1840, 1839
1593, 1599, 1600, 1841, 1840
1594, 1600, 1601, 1842, 1841
1595, 1601, 1602, 1843, 1842
1596, 1602, 1603, 1844, 1843
1597, 1603, 1604, 1845, 1844
1598, 1604, 1605, 1846, 1845
1599, 1605, 1606, 1847, 1846
1600, 1606, 1607, 1848, 1847
1601, 1607, 1608, 1849, 1848
1602, 1608, 1609, 1850, 1849
1603, 1609, 1610, 1851, 1850
1604, 1610, 1611, 1852, 1851
1605, 1611, 1612, 1853, 1852
1606, 1612, 1613, 1854, 1853
1607, 1613, 1614, 1855, 1854
1608, 1614, 1615, 1856, 1855
1609, 1615, 1616, 1857, 1856
1610, 1616, 1617, 1858, 1857
1611, 1617, 1618, 1859, 1858
1612, 1618, 1619, 1860, 1859
1613, 1619, 1620, 1861, 1860
1614, 1620, 1621, 1862, 1861
1615, 1621, 1622, 1863, 1862
1616, 1622, 1623, 1864, 1863
1617, 1623, 1624, 1865, 1864
1618, 1624, 1625, 1866, 1865
1619, 1625, 1626, 1867, 1866
1620, 1626, 1627, 1868, 1867
1621, 1627, 1628, 1869, 1868
1622, 1628, 1629, 1870, 1869
1623, 1629, 1630, 1871, 1870
1624, 1630, 1631, 1872, 1871
1625, 1631, 1632, 1873, 1872
1626, 1632, 1633, 1874, 1873
1627, 1633, 1634, 1875, 1874
1628, 1634, 1635, 1876, 1875
1629, 1635, 1636, 1877, 1876
1630, 1636, 1637, 1878, 1877
1631, 1637, 1638, 1879, 1878
1632, 1638, 1639, 1880, 1879
1633, 1639, 1640, 1881, 1880
1634, 1640, 1641, 1882, 1881
1635, 1641, 1642, 1883, 1882
1636, 1642, 1643, 1884, 1883
1637, 1643, 1644, 1885, 1884
1638, 1644, 1645, 1886, 1885
1639, 1645, 1646, 1887, 1886
1640, 1646, 1647, 1888, 1887
1641, 1647, 1648, 1889, 1888
1642, 1648, 1649, 1890, 1889
1643, 1649, 1650, 1891, 1890
1644, 1650, 1651, 1892, 1891
1645, 1651, 1652, 1893, 1892
1646, 1652, 1653, 1894, 1893
1647, 1653, 1654, 1895, 1894
1648, 1654, 1655, 1896, 1895
1649, 1655, 1656, 1897, 1896
1650, 1656, 1657, 1898, 1897
1651, 1657, 1658, 1899, 1898
1652, 1658, 1659, 1900, 1899
1653, 1659, 1660, 1901, 1900
1654, 1660, 1661, 1902, 1901
1655, 1661, 1662, 1903, 1902
1656, 1662, 1663, 1904, 1903
1657, 1663, 1664, 1905, 1904
1658, 1664, 1665, 1906, 1905
1659, 1665, 1666, 1907, 1906
1660, 1666, 1667, 1908, 1907
1661, 1667, 1668, 1909, 1908
1662, 1668, 1669, 1910, 1909
1663, 1669, 1670, 1911, 1910
1664, 1670, 1671, 1912, 1911
1665, 1671, 1672, 1913, 1912
1666, 1672, 1673, 1914, 1913
1667, 1673, 1674, 1915, 1914
1668, 1674, 1675, 1916, 1915
1669, 1675, 1676, 1917, 1916
1670, 1676, 1677, 1918, 1917
1671, 1677, 1678, 1919, 1918
1672, 1678, 1679, 1920, 1919
1673, 1679, 1680, 1921, 1920
1674, 1680, 1681, 1922, 1921
1675, 1681, 1682, 1923, 1922
1676, 1682, 1683, 1924, 1923
1677, 1683, 1684, 1925, 1924
1678, 1684, 1685, 1926, 1925
1679, 1685, 1686, 1927, 1926
1680, 1686, 1687, 1928, 1927
1681, 1688, 1689, 1930, 1929
1682, 1689, 1690, 1931, 1930
1683, 1690, 1691, 1932, 1931
1684, 1691, 1692, 1933, 1932
1685, 1692, 1693, 1934, 1933
1686, 1693, 1694, 1935, 1934
1687, 1694, 1695, 1936, 1935
1688, 1695, 1696, 1937, 1936
1689, 1696, 1697, 1938, 1937
1690, 1697, 1698, 1939, 1938
1691, 1698, 1699, 1940, 1939
1692, 1699, 1700, 1941, 1940
1693, 1700, 1701, 1942, 1941
1694, 1701, 1702, 1943, 1942
1695, 1702, 1703, 1944, 1943
1696, 1703, 1704, 1945, 1944
1697, 1704, 1705, 1946, 1945
1698, 1705, 1706, 1947, 1946
1699, 1706, 1707, 1948, 1947
1700, 1707, 1708, 1949, 1948
1701, 1708, 1709, 1950, 1949
1702, 1709, 1710, 1951, 1950
1703, 1710, 1711, 1952, 1951
1704, 1711, 1712, 1953, 1952
1705, 1712, 1713, 1954, 1953
1706, 1713, 1714, 1955, 1954
1707, 1714, 1715, 1956, 1955
1708, 1715, 1716, 1957, 1956
1709, 1716, 1717, 1958, 1957
1710, 1717, 1718, 1959, 1958
1711, 1718, 1719, 1960, 1959
1712, 1719, 1720, 1961, 1960
1713, 1720, 1721, 1962, 1961
1714, 1721, 1722, 1963, 1962
1715, 1722, 1723, 1964, 1963
1716, 1723, 1724, 1965, 1964
1717, 1724, 1725, 1966, 1965
1718, 1725, 1726, 1967, 1966
1719, 1726, 1727, 1968, 1967
1720, 1727, 1728, 1969, 1968
1721, 1728, 1729, 1970, 1969
1722, 1729, 1730, 1971, 1970
1723, 1730, 1731, 1972, 1971
1724, 1731, 1732, 1973, 1972
1725, 1732, 1733, 1974, 1973
1726, 1733, 1734, 1975, 1974
1727, 1734, 1735, 1976, 1975
1728, 1735, 1736, 1977, 1976
1729, 1736, 1737, 1978, 1977
1730, 1737, 1738, 1979, 1978
1731, 1738, 1739, 1980, 1979
1732, 1739, 1740, 1981, 1980
1733, 1740, 1741, 1982, 1981
1734, 1741, 1742, 1983, 1982
1735, 1742, 1743, 1984, 1983
1736, 1743, 1744, 1985, 1984
1737, 1744, 1745, 1986, 1985
1738, 1745, 1746, 1987, 1986
1739, 1746, 1747, 1988, 1987
1740, 1747, 1748, 1989, 1988
1741, 1748, 1749, 1990, 1989
1742, 1749, 1750, 1991, 1990
1743, 1750, 1751, 1992, 1991
1744, 1751, 1752, 1993, 1992
1745, 1752, 1753, 1994, 1993
1746, 1753, 1754, 1995, 1994
1747, 1754, 1755, 1996, 1995
1748, 1755, 1756, 1997, 1996
1749, 1756, 1757, 1998, 1997
1750, 1757, 1758, 1999, 1998
1751, 1758, 1759, 2000, 1999
1752, 1759, 1760, 2001, 2000
1753, 1760, 1761, 2002, 2001
1754, 1761, 1762, 2003, 2002
1755, 1762, 1763, 2004, 2003
1756, 1763, 1764, 2005, 2004
1757, 1764, 1765, 2006, 2005
1758, 1765, 1766, 2007, 2006
1759, 1766, 1767, 2008, 2007
1760, 1767, 1768, 2009, 2008
1761, 1768, 1769, 2010, 2009
1762, 1769, 1770, 2011, 2010
1763, 1770, 1771, 2012, 2011
1764, 1771, 1772, 2013, 2012
1765, 1772, 1773, 2014, 2013
1766, 1773, 1774, 2015, 2014
1767, 1774, 1775, 2016, 2015
1768, 1775, 1776, 2017, 2016
1769, 1776, 1777, 2018, 2017
1770, 1777, 1778, 2019, 2018
1771, 1778, 1779, 2020, 2019
1772, 1779, 1780, 2021, 2020
1773, 1780, 1781, 2022, 2021
1774, 1781, 1782, 2023, 2022
1775, 1782, 1783, 2024, 2023
1776, 1783, 1784, 2025, 2024
1777, 1784, 1785, 2026, 2025
1778, 1785, 1786, 2027, 2026
1779, 1786, 1787, 2028, 2027
1780, 1787, 1788, 2029, 2028
1781, 1788, 1789, 2030, 2029
1782, 1789, 1790, 2031, 2030
1783, 1790, 1791, 2032, 2031
1784, 1791, 1792, 2033, 2032
1785, 1792, 1793, 2034, 2033
1786, 1793, 1794, 2035, 2034
1787, 1794, 1795, 2036, 2035
1788, 1795, 1796, 2037, 2036
1789, 1796, 1797, 2038, 2037
1790, 1797, 1798, 2039, 2038
1791, 1798, 1799, 2040, 2039
1792, 1799, 1800, 2041, 2040
1793, 1800, 1801, 2042, 2041
1794, 1801, 1802, 2043, 2042
1795, 1802, 1803, 2044, 2043
1796, 1803, 1804, 2045, 2044
1797, 1804, 1805, 2046, 2045
1798, 1805, 1806, 2047, 2046
1799, 1806, 1807, 2048, 2047
1800, 1807, 1808, 2049, 2048
1801, 1808, 1809, 2050, 2049
1802, 1809, 1810, 2051, 2050
1803, 1810, 1811, 2052, 2051
1804, 1811, 1812, 2053, 2052
1805, 1812, 1813, 2054, 2053
1806, 1813, 1814, 2055, 2054
1807, 1814, 1815, 2056, 2055
1808, 1815, 1816, 2057, 2056
1809, 1816, 1817, 2058, 2057
1810, 1817, 1818, 2059, 2058
1811, 1818, 1819, 2060, 2059
1812, 1819, 1820, 2061, 2060
1813, 1820, 1821, 2062, 2061
1814, 1821, 1822, 2063, 2062
1815, 1822, 1823, 2064, 2063
1816, 1823, 1824, 2065, 2064
1817, 1824, 1825, 2066, 2065
1818, 1825, 1826, 2067, 2066
1819, 1826, 1827, 2068, 2067
1820, 1827, 1828, 2069, 2068
1821, 1828, 1829, 2070, 2069
1822, 1829, 1830, 2071, 2070
1823, 1830, 1831, 2072, 2071
1824, 1831, 1832, 2073, 2072
1825, 1832, 1833, 2074, 2073
1826, 1833, 1834, 2075, 2074
1827, 1834, 1835, 2076, 2075
1828, 1835, 1836, 2077, 2076
1829, 1836, 1837, 2078, 2077
1830, 1837, 1838, 2079, 2078
1831, 1838, 1839, 2080, 2079
1832, 1839, 1840, 2081, 2080
1833, 1840, 1841, 2082, 2081
1834, 1841, 1842, 2083, 2082
1835, 1842, 1843, 2084, 2083
1836, 1843, 1844, 2085, 2084
1837, 1844, 1845, 2086, 2085
1838, 1845, 1846, 2087, 2086
1839, 1846, 1847, 2088, 2087
1840, 1847, 1848, 2089, 2088
1841, 1848, 1849, 2090, 2089
1842, 1849, 1850, 2091, 2090
1843, 1850, 1851, 2092, 2091
1844, 1851, 1852, 2093, 2092
1845, 1852, 1853, 2094, 2093
1846, 1853, 1854, 2095, 2094
1847, 1854, 1855, 2096, 2095
1848, 1855, 1856, 2097, 2096
1849, 1856, 1857, 2098, 2097
1850, 1857, 1858, 2099, 2098
1851, 1858, 1859, 2100, 2099
1852, 1859, 1860, 2101, 2100
1853, 1860, 1861, 2102, 2101
1854, 1861, 1862, 2103, 2102
1855, 1862, 1863, 2104, 2103
1856, 1863, 1864, 2105, 2104
1857, 1864, 1865, 2106, 2105
1858, 1865, 1866, 2107, 2106
1859, 1866, 1867, 2108, 2107
1860, 1867, 1868, 2109, 2108
1861, 1868, 1869, 2110, 2109
1862, 1869, 1870, 2111, 2110
1863, 1870, 1871, 2112, 2111
1864, 1871, 1872, 2113, 2112
1865, 1872, 1873, 2114, 2113
1866, 1873, 1874, 2115, 2114
1867, 1874, 1875, 2116, 2115
1868, 1875, 1876, 2117, 2116
1869, 1876, 1877, 2118, 2117
1870, 1877, 1878, 2119, 2118
1871, 1878, 1879, 2120, 2119
1872, 1879, 1880, 2121, 2120
1873, 1880, 1881, 2122, 2121
1874, 1881, 1882, 2123, 2122
1875, 1882, 1883, 2124, 2123
1876, 1883, 1884, 2125, 2124
1877, 1884, 1885, 2126, 2125
1878, 1885, 1886, 2127, 2126
1879, 1886, 1887, 2128, 2127
1880, 1887, 1888, 2129, 2128
1881, 1888, 1889, 2130, 2129
1882, 1889, 1890, 2131, 2130
1883, 1890, 1891, 2132, 2131
1884, 1891, 1892, 2133, 2132
1885, 1892, 1893, 2134, 2133
1886, 1893, 1894, 2135, 2134
1887, 1894, 1895, 2136, 2135
1888, 1895, 1896, 2137, 2136
1889, 1896, 1897, 2138, 2137
1890, 1897, 1898, 2139, 2138
1891, 1898, 1899, 2140, 2139
1892, 1899, 1900, 2141, 2140
1893, 1900, 1901, 2142, 2141
1894, 1901, 1902, 2143, 2142
1895, 1902, 1903, 2144, 2143
1896, 1903, 1904, 2145, 2144
1897, 1904, 1905, 2146, 2145
1898, 1905, 1906, 2147, 2146
1899, 1906, 1907, 2148, 2147
1900, 1907, 1908, 2149, 2148
1901, 1908, 1909, 2150, 2149
1902, 1909, 1910, 2151, 2150
1903, 1910, 1911, 2152, 2151
1904, 1911, 1912, 2153, 2152
1905, 1912, 1913, 2154, 2153
1906, 1913, 1914, 2155, 2154
1907, 1914, 1915, 2156, 2155
1908, 1915, 1916, 2157, 2156
1909, 1916, 1917, 2158, 2157
1910, 1917, 1918, 2159, 2158
1911, 1918, 1919, 2160, 2159
1912, 1919, 1920, 2161, 2160
1913, 1920, 1921, 2162, 2161
1914, 1921, 1922, 2163, 2162
1915, 1922, 1923, 2164, 2163
1916, 1923, 1924, 2165, 2164
1917, 1924, 1925, 2166, 2165
1918, 1925, 1926, 2167, 2166
1919, 1926, 1927, 2168, 2167
1920, 1927, 1928, 2169, 2168
*ELEMENT, TYPE=CPE4, ELSET=DISP_LAYER05
1921, 1929, 1930, 2171, 2170
1922, 1930, 1931, 2172, 2171
1923, 1931, 1932, 2173, 2172
1924, 1932, 1933, 2174, 2173
1925, 1933, 1934, 2175, 2174
1926, 1934, 1935, 2176, 2175
1927, 1935, 1936, 2177, 2176
1928, 1936, 1937, 2178, 2177
1929, 1937, 1938, 2179, 2178
1930, 1938, 1939, 2180, 2179
1931, 1939, 1940, 2181, 2180
1932, 1940, 1941, 2182, 2181
1933, 1941, 1942, 2183, 2182
1934, 1942, 1943, 2184, 2183
1935, 1943, 1944, 2185, 2184
1936, 1944, 1945, 2186, 2185
1937, 1945, 1946, 2187, 2186
1938, 1946, 1947, 2188, 2187
1939, 1947, 1948, 2189, 2188
1940, 1948, 1949, 2190, 2189
1941, 1949, 1950, 2191, 2190
1942, 1950, 1951, 2192, 2191
1943, 1951, 1952, 2193, 2192
1944, 1952, 1953, 2194, 2193
1945, 1953, 1954, 2195, 2194
1946, 1954, 1955, 2196, 2195
1947, 1955, 1956, 2197, 2196
1948, 1956, 1957, 2198, 2197
1949, 1957, 1958, 2199, 2198
1950, 1958, 1959, 2200, 2199
1951, 1959, 1960, 2201, 2200
1952, 1960, 1961, 2202, 2201
1953, 1961, 1962, 2203, 2202
1954, 1962, 1963, 2204, 2203
1955, 1963, 1964, 2205, 2204
1956, 1964, 1965, 2206, 2205
1957, 1965, 1966, 2207, 2206
1958, 1966, 1967, 2208, 2207
1959, 1967, 1968, 2209, 2208
1960, 1968, 1969, 2210, 2209
1961, 1969, 1970, 2211, 2210
1962, 1970, 1971, 2212, 2211
1963, 1971, 1972, 2213, 2212
1964, 1972, 1973, 2214, 2213
1965, 1973, 1974, 2215, 2214
1966, 1974, 1975, 2216, 2215
1967, 1975, 1976, 2217, 2216
1968, 1976, 1977, 2218, 2217
1969, 1977, 1978, 2219, 2218
1970, 1978, 1979, 2220, 2219
1971, 1979, 1980, 2221, 2220
1972, 1980, 1981, 2222, 2221
1973, 1981, 1982, 2223, 2222
1974, 1982, 1983, 2224, 2223
1975, 1983, 1984, 2225, 2224
1976, 1984, 1985, 2226, 2225
1977, 1985, 1986, 2227, 2226
1978, 1986, 1987, 2228, 2227
1979, 1987, 1988, 2229, 2228
1980, 1988, 1989, 2230, 2229
1981, 1989, 1990, 2231, 2230
1982, 1990, 1991, 2232, 2231
1983, 1991, 1992, 2233, 2232
1984, 1992, 1993, 2234, 2233
1985, 1993, 1994, 2235, 2234
1986, 1994, 1995, 2236, 2235
1987, 1995, 1996, 2237, 2236
1988, 1996, 1997, 2238, 2237
1989, 1997, 1998, 2239, 2238
1990, 1998, 1999, 2240, 2239
1991, 1999, 2000, 2241, 2240
1992, 2000, 2001, 2242, 2241
1993, 2001, 2002, 2243, 2242
1994, 2002, 2003, 2244, 2243
1995, 2003, 2004, 2245, 2244
1996, 2004, 2005, 2246, 2245
1997, 2005, 2006, 2247, 2246
1998, 2006, 2007, 2248, 2247
1999, 2007, 2008, 2249, 2248
2000, 2008, 2009, 2250, 2249
2001, 2009, 2010, 2251, 2250
2002, 2010, 2011, 2252, 2251
2003, 2011, 2012, 2253, 2252
2004, 2012, 2013, 2254, 2253
2005, 2013, 2014, 2255, 2254
2006, 2014, 2015, 2256, 2255
2007, 2015, 2016, 2257, 2256
2008, 2016, 2017, 2258, 2257
2009, 2017, 2018, 2259, 2258
2010, 2018, 2019, 2260, 2259
2011, 2019, 2020, 2261, 2260
2012, 2020, 2021, 2262, 2261
2013, 2021, 2022, 2263, 2262
2014, 2022, 2023, 2264, 2263
2015, 2023, 2024, 2265, 2264
2016, 2024, 2025, 2266, 2265
2017, 2025, 2026, 2267, 2266
2018, 2026, 2027, 2268, 2267
2019, 2027, 2028, 2269, 2268
2020, 2028, 2029, 2270, 2269
2021, 2029, 2030, 2271, 2270
2022, 2030, 2031, 2272, 2271
2023, 2031, 2032, 2273, 2272
2024, 2032, 2033, 2274, 2273
2025, 2033, 2034, 2275, 2274
2026, 2034, 2035, 2276, 2275
2027, 2035, 2036, 2277, 2276
2028, 2036, 2037, 2278, 2277
2029, 2037, 2038, 2279, 2278
2030, 2038, 2039, 2280, 2279
2031, 2039, 2040, 2281, 2280
2032, 2040, 2041, 2282, 2281
2033, 2041, 2042, 2283, 2282
2034, 2042, 2043, 2284, 2283
2035, 2043, 2044, 2285, 2284
2036, 2044, 2045, 2286, 2285
2037, 2045, 2046, 2287, 2286
2038, 2046, 2047, 2288, 2287
2039, 2047, 2048, 2289, 2288
2040, 2048, 2049, 2290, 2289
2041, 2049, 2050, 2291, 2290
2042, 2050, 2051, 2292, 2291
2043, 2051, 2052, 2293, 2292
2044, 2052, 2053, 2294, 2293
2045, 2053, 2054, 2295, 2294
2046, 2054, 2055, 2296, 2295
2047, 2055, 2056, 2297, 2296
2048, 2056, 2057, 2298, 2297
2049, 2057, 2058, 2299, 2298
2050, 2058, 2059, 2300, 2299
2051, 2059, 2060, 2301, 2300
2052, 2060, 2061, 2302, 2301
2053, 2061, 2062, 2303, 2302
2054, 2062, 2063, 2304, 2303
2055, 2063, 2064, 2305, 2304
2056, 2064, 2065, 2306, 2305
2057, 2065, 2066, 2307, 2306
2058, 2066, 2067, 2308, 2307
2059, 2067, 2068, 2309, 2308
2060, 2068, 2069, 2310, 2309
2061, 2069, 2070, 2311, 2310
2062, 2070, 2071, 2312, 2311
2063, 2071, 2072, 2313, 2312
2064, 2072, 2073, 2314, 2313
2065, 2073, 2074, 2315, 2314
2066, 2074, 2075, 2316, 2315
2067, 2075, 2076, 2317, 2316
2068, 2076, 2077, 2318, 2317
2069, 2077, 2078, 2319, 2318
2070, 2078, 2079, 2320, 2319
2071, 2079, 2080, 2321, 2320
2072, 2080, 2081, 2322, 2321
2073, 2081, 2082, 2323, 2322
2074, 2082, 2083, 2324, 2323
2075, 2083, 2084, 2325, 2324
2076, 2084, 2085, 2326, 2325
2077, 2085, 2086, 2327, 2326
2078, 2086, 2087, 2328, 2327
2079, 2087, 2088, 2329, 2328
2080, 2088, 2089, 2330, 2329
2081, 2089, 2090, 2331, 2330
2082, 2090, 2091, 2332, 2331
2083, 2091, 2092, 2333, 2332
2084, 2092, 2093, 2334, 2333
2085, 2093, 2094, 2335, 2334
2086, 2094, 2095, 2336, 2335
2087, 2095, 2096, 2337, 2336
2088, 2096, 2097, 2338, 2337
2089, 2097, 2098, 2339, 2338
2090, 2098, 2099, 2340, 2339
2091, 2099, 2100, 2341, 2340
2092, 2100, 2101, 2342, 2341
2093, 2101, 2102, 2343, 2342
2094, 2102, 2103, 2344, 2343
2095, 2103, 2104, 2345, 2344
2096, 2104, 2105, 2346, 2345
2097, 2105, 2106, 2347, 2346
2098, 2106, 2107, 2348, 2347
2099, 2107, 2108, 2349, 2348
2100, 2108, 2109, 2350, 2349
2101, 2109, 2110, 2351, 2350
2102, 2110, 2111, 2352, 2351
2103, 2111, 2112, 2353, 2352
2104, 2112, 2113, 2354, 2353
2105, 2113, 2114, 2355, 2354
2106, 2114, 2115, 2356, 2355
2107, 2115, 2116, 2357, 2356
2108, 2116, 2117, 2358, 2357
2109, 2117, 2118, 2359, 2358
2110, 2118, 2119, 2360, 2359
2111, 2119, 2120, 2361, 2360
2112, 2120, 2121, 2362, 2361
2113, 2121, 2122, 2363, 2362
2114, 2122, 2123, 2364, 2363
2115, 2123, 2124, 2365, 2364
2116, 2124, 2125, 2366, 2365
2117, 2125, 2126, 2367, 2366
2118, 2126, 2127, 2368, 2367
2119, 2127, 2128, 2369, 2368
2120, 2128, 2129, 2370, 2369
2121, 2129, 2130, 2371, 2370
2122, 2130, 2131, 2372, 2371
2123, 2131, 2132, 2373, 2372
2124, 2132, 2133, 2374, 2373
2125, 2133, 2134, 2375, 2374
2126, 2134, 2135, 2376, 2375
2127, 2135, 2136, 2377, 2376
2128, 2136, 2137, 2378, 2377
2129, 2137, 2138, 2379, 2378
2130, 2138, 2139, 2380, 2379
2131, 2139, 2140, 2381, 2380
2132, 2140, 2141, 2382, 2381
2133, 2141, 2142, 2383, 2382
2134, 2142, 2143, 2384, 2383
2135, 2143, 2144, 2385, 2384
2136, 2144, 2145, 2386, 2385
2137, 2145, 2146, 2387, 2386
2138, 2146, 2147, 2388, 2387
2139, 2147, 2148, 2389, 2388
2140, 2148, 2149, 2390, 2389
2141, 2149, 2150, 2391, 2390
2142, 2150, 2151, 2392, 2391
2143, 2151, 2152, 2393, 2392
2144, 2152, 2153, 2394, 2393
2145, 2153, 2154, 2395, 2394
2146, 2154, 2155, 2396, 2395
2147, 2155, 2156, 2397, 2396
2148, 2156, 2157, 2398, 2397
2149, 2157, 2158, 2399, 2398
2150, 2158, 2159, 2400, 2399
2151, 2159, 2160, 2401, 2400
2152, 2160, 2161, 2402, 2401
2153, 2161, 2162, 2403, 2402
2154, 2162, 2163, 2404, 2403
2155, 2163, 2164, 2405, 2404
2156, 2164, 2165, 2406, 2405
2157, 2165, 2166, 2407, 2406
2158, 2166, 2167, 2408, 2407
2159, 2167, 2168, 2409, 2408
2160, 2168, 2169, 2410, 2409
*ELEMENT, TYPE=CPE4, ELSET=DISP_LAYER06
2161, 2170, 2171, 2412, 2411
2162, 2171, 2172, 2413, 2412
2163, 2172, 2173, 2414, 2413
2164, 2173, 2174, 2415, 2414
2165, 2174, 2175, 2416, 2415
2166, 2175, 2176, 2417, 2416
2167, 2176, 2177, 2418, 2417
2168, 2177, 2178, 2419, 2418
2169, 2178, 2179, 2420, 2419
2170, 2179, 2180, 2421, 2420
2171, 2180, 2181, 2422, 2421
2172, 2181, 2182, 2423, 2422
2173, 2182, 2183, 2424, 2423
2174, 2183, 2184, 2425, 2424
2175, 2184, 2185, 2426, 2425
2176, 2185, 2186, 2427, 2426
2177, 2186, 2187, 2428, 2427
2178, 2187, 2188, 2429, 2428
2179, 2188, 2189, 2430, 2429
2180, 2189, 2190, 2431, 2430
2181, 2190, 2191, 2432, 2431
2182, 2191, 2192, 2433, 2432
2183, 2192, 2193, 2434, 2433
2184, 2193, 2194, 2435, 2434
2185, 2194, 2195, 2436, 2435
2186, 2195, 2196, 2437, 2436
2187, 2196, 2197, 2438, 2437
2188, 2197, 2198, 2439, 2438
2189, 2198, 2199, 2440, 2439
2190, 2199, 2200, 2441, 2440
2191, 2200, 2201, 2442, 2441
2192, 2201, 2202, 2443, 2442
2193, 2202, 2203, 2444, 2443
2194, 2203, 2204, 2445, 2444
2195, 2204, 2205, 2446, 2445
2196, 2205, 2206, 2447, 2446
2197, 2206, 2207, 2448, 2447
2198, 2207, 2208, 2449, 2448
2199, 2208, 2209, 2450, 2449
2200, 2209, 2210, 2451, 2450
2201, 2210, 2211, 2452, 2451
2202, 2211, 2212, 2453, 2452
2203, 2212, 2213, 2454, 2453
2204, 2213, 2214, 2455, 2454
2205, 2214, 2215, 2456, 2455
2206, 2215, 2216, 2457, 2456
2207, 2216, 2217, 2458, 2457
2208, 2217, 2218, 2459, 2458
2209, 2218, 2219, 2460, 2459
2210, 2219, 2220, 2461, 2460
2211, 2220, 2221, 2462, 2461
2212, 2221, 2222, 2463, 2462
2213, 2222, 2223, 2464, 2463
2214, 2223, 2224, 2465, 2464
2215, 2224, 2225, 2466, 2465
2216, 2225, 2226, 2467, 2466
2217, 2226, 2227, 2468, 2467
2218, 2227, 2228, 2469, 2468
2219, 2228, 2229, 2470, 2469
2220, 2229, 2230, 2471, 2470
2221, 2230, 2231, 2472, 2471
2222, 2231, 2232, 2473, 2472
2223, 2232, 2233, 2474, 2473
2224, 2233, 2234, 2475, 2474
2225, 2234, 2235, 2476, 2475
2226, 2235, 2236, 2477, 2476
2227, 2236, 2237, 2478, 2477
2228, 2237, 2238, 2479, 2478
2229, 2238, 2239, 2480, 2479
2230, 2239, 2240, 2481, 2480
2231, 2240, 2241, 2482, 2481
2232, 2241, 2242, 2483, 2482
2233, 2242, 2243, 2484, 2483
2234, 2243, 2244, 2485, 2484
2235, 2244, 2245, 2486, 2485
2236, 2245, 2246, 2487, 2486
2237, 2246, 2247, 2488, 2487
2238, 2247, 2248, 2489, 2488
2239, 2248, 2249, 2490, 2489
2240, 2249, 2250, 2491, 2490
2241, 2250, 2251, 2492, 2491
2242, 2251, 2252, 2493, 2492
2243, 2252, 2253, 2494, 2493
2244, 2253, 2254, 2495, 2494
2245, 2254, 2255, 2496, 2495
2246, 2255, 2256, 2497, 2496
2247, 2256, 2257, 2498, 2497
2248, 2257, 2258, 2499, 2498
2249, 2258, 2259, 2500, 2499
2250, 2259, 2260, 2501, 2500
2251, 2260, 2261, 2502, 2501
2252, 2261, 2262, 2503, 2502
2253, 2262, 2263, 2504, 2503
2254, 2263, 2264, 2505, 2504
2255, 2264, 2265, 2506, 2505
2256, 2265, 2266, 2507, 2506
2257, 2266, 2267, 2508, 2507
2258, 2267, 2268, 2509, 2508
2259, 2268, 2269, 2510, 2509
2260, 2269, 2270, 2511, 2510
2261, 2270, 2271, 2512, 2511
2262, 2271, 2272, 2513, 2512
2263, 2272, 2273, 2514, 2513
2264, 2273, 2274, 2515, 2514
2265, 2274, 2275, 2516, 2515
2266, 2275, 2276, 2517, 2516
2267, 2276, 2277, 2518, 2517
2268, 2277, 2278, 2519, 2518
2269, 2278, 2279, 2520, 2519
2270, 2279, 2280, 2521, 2520
2271, 2280, 2281, 2522, 2521
2272, 2281, 2282, 2523, 2522
2273, 2282, 2283, 2524, 2523
2274, 2283, 2284, 2525, 2524
2275, 2284, 2285, 2526, 2525
2276, 2285, 2286, 2527, 2526
2277, 2286, 2287, 2528, 2527
2278, 2287, 2288, 2529, 2528
2279, 2288, 2289, 2530, 2529
2280, 2289, 2290, 2531, 2530
2281, 2290, 2291, 2532, 2531
2282, 2291, 2292, 2533, 2532
2283, 2292, 2293, 2534, 2533
2284, 2293, 2294, 2535, 2534
2285, 2294, 2295, 2536, 2535
2286, 2295, 2296, 2537, 2536
2287, 2296, 2297, 2538, 2537
2288, 2297, 2298, 2539, 2538
2289, 2298, 2299, 2540, 2539
2290, 2299, 2300, 2541, 2540
2291, 2300, 2301, 2542, 2541
2292, 2301, 2302, 2543, 2542
2293, 2302, 2303, 2544, 2543
2294, 2303, 2304, 2545, 2544
2295, 2304, 2305, 2546, 2545
2296, 2305, 2306, 2547, 2546
2297, 2306, 2307, 2548, 2547
2298, 2307, 2308, 2549, 2548
2299, 2308, 2309, 2550, 2549
2300, 2309, 2310, 2551, 2550
2301, 2310, 2311, 2552, 2551
2302, 2311, 2312, 2553, 2552
2303, 2312, 2313, 2554, 2553
2304, 2313, 2314, 2555, 2554
2305, 2314, 2315, 2556, 2555
2306, 2315, 2316, 2557, 2556
2307, 2316, 2317, 2558, 2557
2308, 2317, 2318, 2559, 2558
2309, 2318, 2319, 2560, 2559
2310, 2319, 2320, 2561, 2560
2311, 2320, 2321, 2562, 2561
2312, 2321, 2322, 2563, 2562
2313, 2322, 2323, 2564, 2563
2314, 2323, 2324, 2565, 2564
2315, 2324, 2325, 2566, 2565
2316, 2325, 2326, 2567, 2566
2317, 2326, 2327, 2568, 2567
2318, 2327, 2328, 2569, 2568
2319, 2328, 2329, 2570, 2569
2320, 2329, 2330, 2571, 2570
2321, 2330, 2331, 2572, 2571
2322, 2331, 2332, 2573, 2572
2323, 2332, 2333, 2574, 2573
2324, 2333, 2334, 2575, 2574
2325, 2334, 2335, 2576, 2575
2326, 2335, 2336, 2577, 2576
2327, 2336, 2337, 2578, 2577
2328, 2337, 2338, 2579, 2578
2329, 2338, 2339, 2580, 2579
2330, 2339, 2340, 2581, 2580
2331, 2340, 2341, 2582, 2581
2332, 2341, 2342, 2583, 2582
2333, 2342, 2343, 2584, 2583
2334, 2343, 2344, 2585, 2584
2335, 2344, 2345, 2586, 2585
2336, 2345, 2346, 2587, 2586
2337, 2346, 2347, 2588, 2587
2338, 2347, 2348, 2589, 2588
2339, 2348, 2349, 2590, 2589
2340, 2349, 2350, 2591, 2590
2341, 2350, 2351, 2592, 2591
2342, 2351, 2352, 2593, 2592
2343, 2352, 2353, 2594, 2593
2344, 2353, 2354, 2595, 2594
2345, 2354, 2355, 2596, 2595
2346, 2355, 2356, 2597, 2596
2347, 2356, 2357, 2598, 2597
2348, 2357, 2358, 2599, 2598
2349, 2358, 2359, 2600, 2599
2350, 2359, 2360, 2601, 2600
2351, 2360, 2361, 2602, 2601
2352, 2361, 2362, 2603, 2602
2353, 2362, 2363, 2604, 2603
2354, 2363, 2364, 2605, 2604
2355, 2364, 2365, 2606, 2605
2356, 2365, 2366, 2607, 2606
2357, 2366, 2367, 2608, 2607
2358, 2367, 2368, 2609, 2608
2359, 2368, 2369, 2610, 2609
2360, 2369, 2370, 2611, 2610
2361, 2370, 2371, 2612, 2611
2362, 2371, 2372, 2613, 2612
2363, 2372, 2373, 2614, 2613
2364, 2373, 2374, 2615, 2614
2365, 2374, 2375, 2616, 2615
2366, 2375, 2376, 2617, 2616
2367, 2376, 2377, 2618, 2617
2368, 2377, 2378, 2619, 2618
2369, 2378, 2379, 2620, 2619
2370, 2379, 2380, 2621, 2620
2371, 2380, 2381, 2622, 2621
2372, 2381, 2382, 2623, 2622
2373, 2382, 2383, 2624, 2623
2374, 2383, 2384, 2625, 2624
2375, 2384, 2385, 2626, 2625
2376, 2385, 2386, 2627, 2626
2377, 2386, 2387, 2628, 2627
2378, 2387, 2388, 2629, 2628
2379, 2388, 2389, 2630, 2629
2380, 2389, 2390, 2631, 2630
2381, 2390, 2391, 2632, 2631
2382, 2391, 2392, 2633, 2632
2383, 2392, 2393, 2634, 2633
2384, 2393, 2394, 2635, 2634
2385, 2394, 2395, 2636, 2635
2386, 2395, 2396, 2637, 2636
2387, 2396, 2397, 2638, 2637
2388, 2397, 2398, 2639, 2638
2389, 2398, 2399, 2640, 2639
2390, 2399, 2400, 2641, 2640
2391, 2400, 2401, 2642, 2641
2392, 2401, 2402, 2643, 2642
2393, 2402, 2403, 2644, 2643
2394, 2403, 2404, 2645, 2644
2395, 2404, 2405, 2646, 2645
2396, 2405, 2406, 2647, 2646
2397, 2406, 2407, 2648, 2647
2398, 2407, 2408, 2649, 2648
2399, 2408, 2409, 2650, 2649
2400, 2409, 2410, 2651, 2650
2401, 2411, 2412, 2653, 2652
2402, 2412, 2413, 2654, 2653
2403, 2413, 2414, 2655, 2654
2404, 2414, 2415, 2656, 2655
2405, 2415, 2416, 2657, 2656
2406, 2416, 2417, 2658, 2657
2407, 2417, 2418, 2659, 2658
2408, 2418, 2419, 2660, 2659
2409, 2419, 2420, 2661, 2660
2410, 2420, 2421, 2662, 2661
2411, 2421, 2422, 2663, 2662
2412, 2422, 2423, 2664, 2663
2413, 2423, 2424, 2665, 2664
2414, 2424, 2425, 2666, 2665
2415, 2425, 2426, 2667, 2666
2416, 2426, 2427, 2668, 2667
2417, 2427, 2428, 2669, 2668
2418, 2428, 2429, 2670, 2669
2419, 2429, 2430, 2671, 2670
2420, 2430, 2431, 2672, 2671
2421, 2431, 2432, 2673, 2672
2422, 2432, 2433, 2674, 2673
2423, 2433, 2434, 2675, 2674
2424, 2434, 2435, 2676, 2675
2425, 2435, 2436, 2677, 2676
2426, 2436, 2437, 2678, 2677
2427, 2437, 2438, 2679, 2678
2428, 2438, 2439, 2680, 2679
2429, 2439, 2440, 2681, 2680
2430, 2440, 2441, 2682, 2681
2431, 2441, 2442, 2683, 2682
2432, 2442, 2443, 2684, 2683
2433, 2443, 2444, 2685, 2684
2434, 2444, 2445, 2686, 2685
2435, 2445, 2446, 2687, 2686
2436, 2446, 2447, 2688, 2687
2437, 2447, 2448, 2689, 2688
2438, 2448, 2449, 2690, 2689
2439, 2449, 2450, 2691, 2690
2440, 2450, 2451, 2692, 2691
2441, 2451, 2452, 2693, 2692
2442, 2452, 2453, 2694, 2693
2443, 2453, 2454, 2695, 2694
2444, 2454, 2455, 2696, 2695
2445, 2455, 2456, 2697, 2696
2446, 2456, 2457, 2698, 2697
2447, 2457, 2458, 2699, 2698
2448, 2458, 2459, 2700, 2699
2449, 2459, 2460, 2701, 2700
2450, 2460, 2461, 2702, 2701
2451, 2461, 2462, 2703, 2702
2452, 2462, 2463, 2704, 2703
2453, 2463, 2464, 2705, 2704
2454, 2464, 2465, 2706, 2705
2455, 2465, 2466, 2707, 2706
2456, 2466, 2467, 2708, 2707
2457, 2467, 2468, 2709, 2708
2458, 2468, 2469, 2710, 2709
2459, 2469, 2470, 2711, 2710
2460, 2470, 2471, 2712, 2711
2461, 2471, 2472, 2713, 2712
2462, 2472, 2473, 2714, 2713
2463, 2473, 2474, 2715, 2714
2464, 2474, 2475, 2716, 2715
2465, 2475, 2476, 2717, 2716
2466, 2476, 2477, 2718, 2717
2467, 2477, 2478, 2719, 2718
2468, 2478, 2479, 2720, 2719
2469, 2479, 2480, 2721, 2720
2470, 2480, 2481, 2722, 2721
2471, 2481, 2482, 2723, 2722
2472, 2482, 2483, 2724, 2723
2473, 2483, 2484, 2725, 2724
2474, 2484, 2485, 2726, 2725
2475, 2485, 2486, 2727, 2726
2476, 2486, 2487, 2728, 2727
2477, 2487, 2488, 2729, 2728
2478, 2488, 2489, 2730, 2729
2479, 2489, 2490, 2731, 2730
2480, 2490, 2491, 2732, 2731
2481, 2491, 2492, 2733, 2732
2482, 2492, 2493, 2734, 2733
2483, 2493, 2494, 2735, 2734
2484, 2494, 2495, 2736, 2735
2485, 2495, 2496, 2737, 2736
2486, 2496, 2497, 2738, 2737
2487, 2497, 2498, 2739, 2738
2488, 2498, 2499, 2740, 2739
2489, 2499, 2500, 2741, 2740
2490, 2500, 2501, 2742, 2741
2491, 2501, 2502, 2743, 2742
2492, 2502, 2503, 2744, 2743
2493, 2503, 2504, 2745, 2744
2494, 2504, 2505, 2746, 2745
2495, 2505, 2506, 2747, 2746
2496, 2506, 2507, 2748, 2747
2497, 2507, 2508, 2749, 2748
2498, 2508, 2509, 2750, 2749
2499, 2509, 2510, 2751, 2750
2500, 2510, 2511, 2752, 2751
2501, 2511, 2512, 2753, 2752
2502, 2512, 2513, 2754, 2753
2503, 2513, 2514, 2755, 2754
2504, 2514, 2515, 2756, 2755
2505, 2515, 2516, 2757, 2756
2506, 2516, 2517, 2758, 2757
2507, 2517, 2518, 2759, 2758
2508, 2518, 2519, 2760, 2759
2509, 2519, 2520, 2761, 2760
2510, 2520, 2521, 2762, 2761
2511, 2521, 2522, 2763, 2762
2512, 2522, 2523, 2764, 2763
2513, 2523, 2524, 2765, 2764
2514, 2524, 2525, 2766, 2765
2515, 2525, 2526, 2767, 2766
2516, 2526, 2527, 2768, 2767
2517, 2527, 2528, 2769, 2768
2518, 2528, 2529, 2770, 2769
2519, 2529, 2530, 2771, 2770
2520, 2530, 2531, 2772, 2771
2521, 2531, 2532, 2773, 2772
2522, 2532, 2533, 2774, 2773
2523, 2533, 2534, 2775, 2774
2524, 2534, 2535, 2776, 2775
2525, 2535, 2536, 2777, 2776
2526, 2536, 2537, 2778, 2777
2527, 2537, 2538, 2779, 2778
2528, 2538, 2539, 2780, 2779
2529, 2539, 2540, 2781, 2780
2530, 2540, 2541, 2782, 2781
2531, 2541, 2542, 2783, 2782
2532, 2542, 2543, 2784, 2783
2533, 2543, 2544, 2785, 2784
2534, 2544, 2545, 2786, 2785
2535, 2545, 2546, 2787, 2786
2536, 2546, 2547, 2788, 2787
2537, 2547, 2548, 2789, 2788
2538, 2548, 2549, 2790, 2789
2539, 2549, 2550, 2791, 2790
2540, 2550, 2551, 2792, 2791
2541, 2551, 2552, 2793, 2792
2542, 2552, 2553, 2794, 2793
2543, 2553, 2554, 2795, 2794
2544, 2554, 2555, 2796, 2795
2545, 2555, 2556, 2797, 2796
2546, 2556, 2557, 2798, 2797
2547, 2557, 2558, 2799, 2798
2548, 2558, 2559, 2800, 2799
2549, 2559, 2560, 2801, 2800
2550, 2560, 2561, 2802, 2801
2551, 2561, 2562, 2803, 2802
2552, 2562, 2563, 2804, 2803
2553, 2563, 2564, 2805, 2804
2554, 2564, 2565, 2806, 2805
2555, 2565, 2566, 2807, 2806
2556, 2566, 2567, 2808, 2807
2557, 2567, 2568, 2809, 2808
2558, 2568, 2569, 2810, 2809
2559, 2569, 2570, 2811, 2810
2560, 2570, 2571, 2812, 2811
2561, 2571, 2572, 2813, 2812
2562, 2572, 2573, 2814, 2813
2563, 2573, 2574, 2815, 2814
2564, 2574, 2575, 2816, 2815
2565, 2575, 2576, 2817, 2816
2566, 2576, 2577, 2818, 2817
2567, 2577, 2578, 2819, 2818
2568, 2578, 2579, 2820, 2819
2569, 2579, 2580, 2821, 2820
2570, 2580, 2581, 2822, 2821
2571, 2581, 2582, 2823, 2822
2572, 2582, 2583, 2824, 2823
2573, 2583, 2584, 2825, 2824
2574, 2584, 2585, 2826, 2825
2575, 2585, 2586, 2827, 2826
2576, 2586, 2587, 2828, 2827
2577, 2587, 2588, 2829, 2828
2578, 2588, 2589, 2830, 2829
2579, 2589, 2590, 2831, 2830
2580, 2590, 2591, 2832, 2831
2581, 2591, 2592, 2833, 2832
2582, 2592, 2593, 2834, 2833
2583, 2593, 2594, 2835, 2834
2584, 2594, 2595, 2836, 2835
2585, 2595, 2596, 2837, 2836
2586, 2596, 2597, 2838, 2837
2587, 2597, 2598, 2839, 2838
2588, 2598, 2599, 2840, 2839
2589, 2599, 2600, 2841, 2840
2590, 2600, 2601, 2842, 2841
2591, 2601, 2602, 2843, 2842
2592, 2602, 2603, 2844, 2843
2593, 2603, 2604, 2845, 2844
2594, 2604, 2605, 2846, 2845
2595, 2605, 2606, 2847, 2846
2596, 2606, 2607, 2848, 2847
2597, 2607, 2608, 2849, 2848
2598, 2608, 2609, 2850, 2849
2599, 2609, 2610, 2851, 2850
2600, 2610, 2611, 2852, 2851
2601, 2611, 2612, 2853, 2852
2602, 2612, 2613, 2854, 2853
2603, 2613, 2614, 2855, 2854
2604, 2614, 2615, 2856, 2855
2605, 2615, 2616, 2857, 2856
2606, 2616, 2617, 2858, 2857
2607, 2617, 2618, 2859, 2858
2608, 2618, 2619, 2860, 2859
2609, 2619, 2620, 2861, 2860
2610, 2620, 2621, 2862, 2861
2611, 2621, 2622, 2863, 2862
2612, 2622, 2623, 2864, 2863
2613, 2623, 2624, 2865, 2864
2614, 2624, 2625, 2866, 2865
2615, 2625, 2626, 2867, 2866
2616, 2626, 2627, 2868, 2867
2617, 2627, 2628, 2869, 2868
2618, 2628, 2629, 2870, 2869
2619, 2629, 2630, 2871, 2870
2620, 2630, 2631, 2872, 2871
2621, 2631, 2632, 2873, 2872
2622, 2632, 2633, 2874, 2873
2623, 2633, 2634, 2875, 2874
2624, 2634, 2635, 2876, 2875
2625, 2635, 2636, 2877, 2876
2626, 2636, 2637, 2878, 2877
2627, 2637, 2638, 2879, 2878
2628, 2638, 2639, 2880, 2879
2629, 2639, 2640, 2881, 2880
2630, 2640, 2641, 2882, 2881
2631, 2641, 2642, 2883, 2882
2632, 2642, 2643, 2884, 2883
2633, 2643, 2644, 2885, 2884
2634, 2644, 2645, 2886, 2885
2635, 2645, 2646, 2887, 2886
2636, 2646, 2647, 2888, 2887
2637, 2647, 2648, 2889, 2888
2638, 2648, 2649, 2890, 2889
2639, 2649, 2650, 2891, 2890
2640, 2650, 2651, 2892, 2891
2641, 2652, 2653, 2894, 2893
2642, 2653, 2654, 2895, 2894
2643, 2654, 2655, 2896, 2895
2644, 2655, 2656, 2897, 2896
2645, 2656, 2657, 2898, 2897
2646, 2657, 2658, 2899, 2898
2647, 2658, 2659, 2900, 2899
2648, 2659, 2660, 2901, 2900
2649, 2660, 2661, 2902, 2901
2650, 2661, 2662, 2903, 2902
2651, 2662, 2663, 2904, 2903
2652, 2663, 2664, 2905, 2904
2653, 2664, 2665, 2906, 2905
2654, 2665, 2666, 2907, 2906
2655, 2666, 2667, 2908, 2907
2656, 2667, 2668, 2909, 2908
2657, 2668, 2669, 2910, 2909
2658, 2669, 2670, 2911, 2910
2659, 2670, 2671, 2912, 2911
2660, 2671, 2672, 2913, 2912
2661, 2672, 2673, 2914, 2913
2662, 2673, 2674, 2915, 2914
2663, 2674, 2675, 2916, 2915
2664, 2675, 2676, 2917, 2916
2665, 2676, 2677, 2918, 2917
2666, 2677, 2678, 2919, 2918
2667, 2678, 2679, 2920, 2919
2668, 2679, 2680, 2921, 2920
2669, 2680, 2681, 2922, 2921
2670, 2681, 2682, 2923, 2922
2671, 2682, 2683, 2924, 2923
2672, 2683, 2684, 2925, 2924
2673, 2684, 2685, 2926, 2925
2674, 2685, 2686, 2927, 2926
2675, 2686, 2687, 2928, 2927
2676, 2687, 2688, 2929, 2928
2677, 2688, 2689, 2930, 2929
2678, 2689, 2690, 2931, 2930
2679, 2690, 2691, 2932, 2931
2680, 2691, 2692, 2933, 2932
2681, 2692, 2693, 2934, 2933
2682, 2693, 2694, 2935, 2934
2683, 2694, 2695, 2936, 2935
2684, 2695, 2696, 2937, 2936
2685, 2696, 2697, 2938, 2937
2686, 2697, 2698, 2939, 2938
2687, 2698, 2699, 2940, 2939
2688, 2699, 2700, 2941, 2940
2689, 2700, 2701, 2942, 2941
2690, 2701, 2702, 2943, 2942
2691, 2702, 2703, 2944, 2943
2692, 2703, 2704, 2945, 2944
2693, 2704, 2705, 2946, 2945
2694, 2705, 2706, 2947, 2946
2695, 2706, 2707, 2948, 2947
2696, 2707, 2708, 2949, 2948
2697, 2708, 2709, 2950, 2949
2698, 2709, 2710, 2951, 2950
2699, 2710, 2711, 2952, 2951
2700, 2711, 2712, 2953, 2952
2701, 2712, 2713, 2954, 2953
2702, 2713, 2714, 2955, 2954
2703, 2714, 2715, 2956, 2955
2704, 2715, 2716, 2957, 2956
2705, 2716, 2717, 2958, 2957
2706, 2717, 2718, 2959, 2958
2707, 2718, 2719, 2960, 2959
2708, 2719, 2720, 2961, 2960
2709, 2720, 2721, 2962, 2961
2710, 2721, 2722, 2963, 2962
2711, 2722, 2723, 2964, 2963
2712, 2723, 2724, 2965, 2964
2713, 2724, 2725, 2966, 2965
2714, 2725, 2726, 2967, 2966
2715, 2726, 2727, 2968, 2967
2716, 2727, 2728, 2969, 2968
2717, 2728, 2729, 2970, 2969
2718, 2729, 2730, 2971, 2970
2719, 2730, 2731, 2972, 2971
2720, 2731, 2732, 2973, 2972
2721, 2732, 2733, 2974, 2973
2722, 2733, 2734, 2975, 2974
2723, 2734, 2735, 2976, 2975
2724, 2735, 2736, 2977, 2976
2725, 2736, 2737, 2978, 2977
2726, 2737, 2738, 2979, 2978
2727, 2738, 2739, 2980, 2979
2728, 2739, 2740, 2981, 2980
2729, 2740, 2741, 2982, 2981
2730, 2741, 2742, 2983, 2982
2731, 2742, 2743, 2984, 2983
2732, 2743, 2744, 2985, 2984
2733, 2744, 2745, 2986, 2985
2734, 2745, 2746, 2987, 2986
2735, 2746, 2747, 2988, 2987
2736, 2747, 2748, 2989, 2988
2737, 2748, 2749, 2990, 2989
2738, 2749, 2750, 2991, 2990
2739, 2750, 2751, 2992, 2991
2740, 2751, 2752, 2993, 2992
2741, 2752, 2753, 2994, 2993
2742, 2753, 2754, 2995, 2994
2743, 2754, 2755, 2996, 2995
2744, 2755, 2756, 2997, 2996
2745, 2756, 2757, 2998, 2997
2746, 2757, 2758, 2999, 2998
2747, 2758, 2759, 3000, 2999
2748, 2759, 2760, 3001, 3000
2749, 2760, 2761, 3002, 3001
2750, 2761, 2762, 3003, 3002
2751, 2762, 2763, 3004, 3003
2752, 2763, 2764, 3005, 3004
2753, 2764, 2765, 3006, 3005
2754, 2765, 2766, 3007, 3006
2755, 2766, 2767, 3008, 3007
2756, 2767, 2768, 3009, 3008
2757, 2768, 2769, 3010, 3009
2758, 2769, 2770, 3011, 3010
2759, 2770, 2771, 3012, 3011
2760, 2771, 2772, 3013, 3012
2761, 2772, 2773, 3014, 3013
2762, 2773, 2774, 3015, 3014
2763, 2774, 2775, 3016, 3015
2764, 2775, 2776, 3017, 3016
2765, 2776, 2777, 3018, 3017
2766, 2777, 2778, 3019, 3018
2767, 2778, 2779, 3020, 3019
2768, 2779, 2780, 3021, 3020
2769, 2780, 2781, 3022, 3021
2770, 2781, 2782, 3023, 3022
2771, 2782, 2783, 3024, 3023
2772, 2783, 2784, 3025, 3024
2773, 2784, 2785, 3026, 3025
2774, 2785, 2786, 3027, 3026
2775, 2786, 2787, 3028, 3027
2776, 2787, 2788, 3029, 3028
2777, 2788, 2789, 3030, 3029
2778, 2789, 2790, 3031, 3030
2779, 2790, 2791, 3032, 3031
2780, 2791, 2792, 3033, 3032
2781, 2792, 2793, 3034, 3033
2782, 2793, 2794, 3035, 3034
2783, 2794, 2795, 3036, 3035
2784, 2795, 2796, 3037, 3036
2785, 2796, 2797, 3038, 3037
2786, 2797, 2798, 3039, 3038
2787, 2798, 2799, 3040, 3039
2788, 2799, 2800, 3041, 3040
2789, 2800, 2801, 3042, 3041
2790, 2801, 2802, 3043, 3042
2791, 2802, 2803, 3044, 3043
2792, 2803, 2804, 3045, 3044
2793, 2804, 2805, 3046, 3045
2794, 2805, 2806, 3047, 3046
2795, 2806, 2807, 3048, 3047
2796, 2807, 2808, 3049, 3048
2797, 2808, 2809, 3050, 3049
2798, 2809, 2810, 3051, 3050
2799, 2810, 2811, 3052, 3051
2800, 2811, 2812, 3053, 3052
2801, 2812, 2813, 3054, 3053
2802, 2813, 2814, 3055, 3054
2803, 2814, 2815, 3056, 3055
2804, 2815, 2816, 3057, 3056
2805, 2816, 2817, 3058, 3057
2806, 2817, 2818, 3059, 3058
2807, 2818, 2819, 3060, 3059
2808, 2819, 2820, 3061, 3060
2809, 2820, 2821, 3062, 3061
2810, 2821, 2822, 3063, 3062
2811, 2822, 2823, 3064, 3063
2812, 2823, 2824, 3065, 3064
2813, 2824, 2825, 3066, 3065
2814, 2825, 2826, 3067, 3066
2815, 2826, 2827, 3068, 3067
2816, 2827, 2828, 3069, 3068
2817, 2828, 2829, 3070, 3069
2818, 2829, 2830, 3071, 3070
2819, 2830, 2831, 3072, 3071
2820, 2831, 2832, 3073, 3072
2821, 2832, 2833, 3074, 3073
2822, 2833, 2834, 3075, 3074
2823, 2834, 2835, 3076, 3075
2824, 2835, 2836, 3077, 3076
2825, 2836, 2837, 3078, 3077
2826, 2837, 2838, 3079, 3078
2827, 2838, 2839, 3080, 3079
2828, 2839, 2840, 3081, 3080
2829, 2840, 2841, 3082, 3081
2830, 2841, 2842, 3083, 3082
2831, 2842, 2843, 3084, 3083
2832, 2843, 2844, 3085, 3084
2833, 2844, 2845, 3086, 3085
2834, 2845, 2846, 3087, 3086
2835, 2846, 2847, 3088, 3087
2836, 2847, 2848, 3089, 3088
2837, 2848, 2849, 3090, 3089
2838, 2849, 2850, 3091, 3090
2839, 2850, 2851, 3092, 3091
2840, 2851, 2852, 3093, 3092
2841, 2852, 2853, 3094, 3093
2842, 2853, 2854, 3095, 3094
2843, 2854, 2855, 3096, 3095
2844, 2855, 2856, 3097, 3096
2845, 2856, 2857, 3098, 3097
2846, 2857, 2858, 3099, 3098
2847, 2858, 2859, 3100, 3099
2848, 2859, 2860, 3101, 3100
2849, 2860, 2861, 3102, 3101
2850, 2861, 2862, 3103, 3102
2851, 2862, 2863, 3104, 3103
2852, 2863, 2864, 3105, 3104
2853, 2864, 2865, 3106, 3105
2854, 2865, 2866, 3107, 3106
2855, 2866, 2867, 3108, 3107
2856, 2867, 2868, 3109, 3108
2857, 2868, 2869, 3110, 3109
2858, 2869, 2870, 3111, 3110
2859, 2870, 2871, 3112, 3111
2860, 2871, 2872, 3113, 3112
2861, 2872, 2873, 3114, 3113
2862, 2873, 2874, 3115, 3114
2863, 2874, 2875, 3116, 3115
2864, 2875, 2876, 3117, 3116
2865, 2876, 2877, 3118, 3117
2866, 2877, 2878, 3119, 3118
2867, 2878, 2879, 3120, 3119
2868, 2879, 2880, 3121, 3120
2869, 2880, 2881, 3122, 3121
2870, 2881, 2882, 3123, 3122
2871, 2882, 2883, 3124, 3123
2872, 2883, 2884, 3125, 3124
2873, 2884, 2885, 3126, 3125
2874, 2885, 2886, 3127, 3126
2875, 2886, 2887, 3128, 3127
2876, 2887, 2888, 3129, 3128
2877, 2888, 2889, 3130, 3129
2878, 2889, 2890, 3131, 3130
2879, 2890, 2891, 3132, 3131
2880, 2891, 2892, 3133, 3132
*ELEMENT, TYPE=CPE4, ELSET=PLATE_LEFT
10000, 10001, 10002, 10063, 10062
10001, 10002, 10003, 10064, 10063
10002, 10003, 10004, 10065, 10064
10003, 10004, 10005, 10066, 10065
10004, 10005, 10006, 10067, 10066
10005, 10006, 10007, 10068, 10067
10006, 10007, 10008, 10069, 10068
10007, 10008, 10009, 10070, 10069
10008, 10009, 10010, 10071, 10070
10009, 10010, 10011, 10072, 10071
10010, 10011, 10012, 10073, 10072
10011, 10012, 10013, 10074, 10073
10012, 10013, 10014, 10075, 10074
10013, 10014, 10015, 10076, 10075
10014, 10015, 10016, 10077, 10076
10015, 10016, 10017, 10078, 10077
10016, 10017, 10018, 10079, 10078
10017, 10018, 10019, 10080, 10079
10018, 10019, 10020, 10081, 10080
10019, 10020, 10021, 10082, 10081
10020, 10021, 10022, 10083, 10082
10021, 10022, 10023, 10084, 10083
10022, 10023, 10024, 10085, 10084
10023, 10024, 10025, 10086, 10085
10024, 10025, 10026, 10087, 10086
10025, 10026, 10027, 10088, 10087
10026, 10027, 10028, 10089, 10088
10027, 10028, 10029, 10090, 10089
10028, 10029, 10030, 10091, 10090
10029, 10030, 10031, 10092, 10091
10030, 10031, 10032, 10093, 10092
10031, 10032, 10033, 10094, 10093
10032, 10033, 10034, 10095, 10094
10033, 10034, 10035, 10096, 10095
10034, 10035, 10036, 10097, 10096
10035, 10036, 10037, 10098, 10097
10036, 10037, 10038, 10099, 10098
10037, 10038, 10039, 10100, 10099
10038, 10039, 10040, 10101, 10100
10039, 10040, 10041, 10102, 10101
10040, 10041, 10042, 10103, 10102
10041, 10042, 10043, 10104, 10103
10042, 10043, 10044, 10105, 10104
10043, 10044, 10045, 10106, 10105
10044, 10045, 10046, 10107, 10106
10045, 10046, 10047, 10108, 10107
10046, 10047, 10048, 10109, 10108
10047, 10048, 10049, 10110, 10109
10048, 10049, 10050, 10111, 10110
10049, 10050, 10051, 10112, 10111
10050, 10051, 10052, 10113, 10112
10051, 10052, 10053, 10114, 10113
10052, 10053, 10054, 10115, 10114
10053, 10054, 10055, 10116, 10115
10054, 10055, 10056, 10117, 10116
10055, 10056, 10057, 10118, 10117
10056, 10057, 10058, 10119, 10118
10057, 10058, 10059, 10120, 10119
10058, 10059, 10060, 10121, 10120
10059, 10060, 10061, 10122, 10121
10060, 10062, 10063, 10124, 10123
10061, 10063, 10064, 10125, 10124
10062, 10064, 10065, 10126, 10125
10063, 10065, 10066, 10127, 10126
10064, 10066, 10067, 10128, 10127
10065, 10067, 10068, 10129, 10128
10066, 10068, 10069, 10130, 10129
10067, 10069, 10070, 10131, 10130
10068, 10070, 10071, 10132, 10131
10069, 10071, 10072, 10133, 10132
10070, 10072, 10073, 10134, 10133
10071, 10073, 10074, 10135, 10134
10072, 10074, 10075, 10136, 10135
10073, 10075, 10076, 10137, 10136
10074, 10076, 10077, 10138, 10137
10075, 10077, 10078, 10139, 10138
10076, 10078, 10079, 10140, 10139
10077, 10079, 10080, 10141, 10140
10078, 10080, 10081, 10142, 10141
10079, 10081, 10082, 10143, 10142
10080, 10082, 10083, 10144, 10143
10081, 10083, 10084, 10145, 10144
10082, 10084, 10085, 10146, 10145
10083, 10085, 10086, 10147, 10146
10084, 10086, 10087, 10148, 10147
10085, 10087, 10088, 10149, 10148
10086, 10088, 10089, 10150, 10149
10087, 10089, 10090, 10151, 10150
10088, 10090, 10091, 10152, 10151
10089, 10091, 10092, 10153, 10152
10090, 10092, 10093, 10154, 10153
10091, 10093, 10094, 10155, 10154
10092, 10094, 10095, 10156, 10155
10093, 10095, 10096, 10157, 10156
10094, 10096, 10097, 10158, 10157
10095, 10097, 10098, 10159, 10158
10096, 10098, 10099, 10160, 10159
10097, 10099, 10100, 10161, 10160
10098, 10100, 10101, 10162, 10161
10099, 10101, 10102, 10163, 10162
10100, 10102, 10103, 10164, 10163
10101, 10103, 10104, 10165, 10164
10102, 10104, 10105, 10166, 10165
10103, 10105, 10106, 10167, 10166
10104, 10106, 10107, 10168, 10167
10105, 10107, 10108, 10169, 10168
10106, 10108, 10109, 10170, 10169
10107, 10109, 10110, 10171, 10170
10108, 10110, 10111, 10172, 10171
10109, 10111, 10112, 10173, 10172
10110, 10112, 10113, 10174, 10173
10111, 10113, 10114, 10175, 10174
10112, 10114, 10115, 10176, 10175
10113, 10115, 10116, 10177, 10176
10114, 10116, 10117, 10178, 10177
10115, 10117, 10118, 10179, 10178
10116, 10118, 10119, 10180, 10179
10117, 10119, 10120, 10181, 10180
10118, 10120, 10121, 10182, 10181
10119, 10121, 10122, 10183, 10182
*ELEMENT, TYPE=CPE4, ELSET=PLATE_RIGHT
10120, 10185, 10186, 10247, 10246
10121, 10186, 10187, 10248, 10247
10122, 10187, 10188, 10249, 10248
10123, 10188, 10189, 10250, 10249
10124, 10189, 10190, 10251, 10250
10125, 10190, 10191, 10252, 10251
10126, 10191, 10192, 10253, 10252
10127, 10192, 10193, 10254, 10253
10128, 10193, 10194, 10255, 10254
10129, 10194, 10195, 10256, 10255
10130, 10195, 10196, 10257, 10256
10131, 10196, 10197, 10258, 10257
10132, 10197, 10198, 10259, 10258
10133, 10198, 10199, 10260, 10259
10134, 10199, 10200, 10261, 10260
10135, 10200, 10201, 10262, 10261
10136, 10201, 10202, 10263, 10262
10137, 10202, 10203, 10264, 10263
10138, 10203, 10204, 10265, 10264
10139, 10204, 10205, 10266, 10265
10140, 10205, 10206, 10267, 10266
10141, 10206, 10207, 10268, 10267
10142, 10207, 10208, 10269, 10268
10143, 10208, 10209, 10270, 10269
10144, 10209, 10210, 10271, 10270
10145, 10210, 10211, 10272, 10271
10146, 10211, 10212, 10273, 10272
10147, 10212, 10213, 10274, 10273
10148, 10213, 10214, 10275, 10274
10149, 10214, 10215, 10276, 10275
10150, 10215, 10216, 10277, 10276
10151, 10216, 10217, 10278, 10277
10152, 10217, 10218, 10279, 10278
10153, 10218, 10219, 10280, 10279
10154, 10219, 10220, 10281, 10280
10155, 10220, 10221, 10282, 10281
10156, 10221, 10222, 10283, 10282
10157, 10222, 10223, 10284, 10283
10158, 10223, 10224, 10285, 10284
10159, 10224, 10225, 10286, 10285
10160, 10225, 10226, 10287, 10286
10161, 10226, 10227, 10288, 10287
10162, 10227, 10228, 10289, 10288
10163, 10228, 10229, 10290, 10289
10164, 10229, 10230, 10291, 10290
10165, 10230, 10231, 10292, 10291
10166, 10231, 10232, 10293, 10292
10167, 10232, 10233, 10294, 10293
10168, 10233, 10234, 10295, 10294
10169, 10234, 10235, 10296, 10295
10170, 10235, 10236, 10297, 10296
10171, 10236, 10237, 10298, 10297
10172, 10237, 10238, 10299, 10298
10173, 10238, 10239, 10300, 10299
10174, 10239, 10240, 10301, 10300
10175, 10240, 10241, 10302, 10301
10176, 10241, 10242, 10303, 10302
10177, 10242, 10243, 10304, 10303
10178, 10243, 10244, 10305, 10304
10179, 10244, 10245, 10306, 10305
10180, 10246, 10247, 10308, 10307
10181, 10247, 10248, 10309, 10308
10182, 10248, 10249, 10310, 10309
10183, 10249, 10250, 10311, 10310
10184, 10250, 10251, 10312, 10311
10185, 10251, 10252, 10313, 10312
10186, 10252, 10253, 10314, 10313
10187, 10253, 10254, 10315, 10314
10188, 10254, 10255, 10316, 10315
10189, 10255, 10256, 10317, 10316
10190, 10256, 10257, 10318, 10317
10191, 10257, 10258, 10319, 10318
10192, 10258, 10259, 10320, 10319
10193, 10259, 10260, 10321, 10320
10194, 10260, 10261, 10322, 10321
10195, 10261, 10262, 10323, 10322
10196, 10262, 10263, 10324, 10323
10197, 10263, 10264, 10325, 10324
10198, 10264, 10265, 10326, 10325
10199, 10265, 10266, 10327, 10326
10200, 10266, 10267, 10328, 10327
10201, 10267, 10268, 10329, 10328
10202, 10268, 10269, 10330, 10329
10203, 10269, 10270, 10331, 10330
10204, 10270, 10271, 10332, 10331
10205, 10271, 10272, 10333, 10332
10206, 10272, 10273, 10334, 10333
10207, 10273, 10274, 10335, 10334
10208, 10274, 10275, 10336, 10335
10209, 10275, 10276, 10337, 10336
10210, 10276, 10277, 10338, 10337
10211, 10277, 10278, 10339, 10338
10212, 10278, 10279, 10340, 10339
10213, 10279, 10280, 10341, 10340
10214, 10280, 10281, 10342, 10341
10215, 10281, 10282, 10343, 10342
10216, 10282, 10283, 10344, 10343
10217, 10283, 10284, 10345, 10344
10218, 10284, 10285, 10346, 10345
10219, 10285, 10286, 10347, 10346
10220, 10286, 10287, 10348, 10347
10221, 10287, 10288, 10349, 10348
10222, 10288, 10289, 10350, 10349
10223, 10289, 10290, 10351, 10350
10224, 10290, 10291, 10352, 10351
10225, 10291, 10292, 10353, 10352
10226, 10292, 10293, 10354, 10353
10227, 10293, 10294, 10355, 10354
10228, 10294, 10295, 10356, 10355
10229, 10295, 10296, 10357, 10356
10230, 10296, 10297, 10358, 10357
10231, 10297, 10298, 10359, 10358
10232, 10298, 10299, 10360, 10359
10233, 10299, 10300, 10361, 10360
10234, 10300, 10301, 10362, 10361
10235, 10301, 10302, 10363, 10362
10236, 10302, 10303, 10364, 10363
10237, 10303, 10304, 10365, 10364
10238, 10304, 10305, 10366, 10365
10239, 10305, 10306, 10367, 10366
**
*MATERIAL, NAME=PET
*ELASTIC
4000.0, 0.3
*PLASTIC
80.0, 0.0
480.0, 1.0
**
*MATERIAL, NAME=PSA
*HYPERELASTIC, ARRUDA-BOYCE
0.016779, 3.0, 2.4000096000384
*VISCOELASTIC, TIME=PRONY
0.2, 0.0, 3.33
*TRS, DEFINITION=WLF
25.0, 17.0, 51.6
**
*MATERIAL, NAME=STEEL
*ELASTIC
20000.0, 0.3
**
*SOLID SECTION, ELSET=DISP_LAYER01, MATERIAL=PSA
1.0,
*SOLID SECTION, ELSET=DISP_LAYER02, MATERIAL=PET
1.0,
*SOLID SECTION, ELSET=DISP_LAYER03, MATERIAL=PSA
1.0,
*SOLID SECTION, ELSET=DISP_LAYER04, MATERIAL=PET
1.0,
*SOLID SECTION, ELSET=DISP_LAYER05, MATERIAL=PSA
1.0,
*SOLID SECTION, ELSET=DISP_LAYER06, MATERIAL=PET
1.0,
*SOLID SECTION, ELSET=PLATE_LEFT, MATERIAL=STEEL
1.0,
*SOLID SECTION, ELSET=PLATE_RIGHT, MATERIAL=STEEL
1.0,
**
*NSET, NSET=DISP_BOT_L_NODES
1, 2, 3, 4, 5, 6, 7, 8, 9, 10, 11, 12, 13, 14, 15, 16, 17, 18, 19, 20, 21, 22, 23, 24, 25, 26, 27, 28, 29, 30, 31, 32, 33, 34, 35, 36, 37, 38, 39, 40, 41, 42, 43, 44, 45, 46, 47, 48, 49, 50, 51, 52, 53, 54, 55, 56, 57, 58, 59, 60, 61, 62, 63, 64, 65, 66, 67, 68, 69, 70, 71, 72, 73
*SURFACE, NAME=DISPLAY_BOT_L, TYPE=NODE
DISP_BOT_L_NODES,
*NSET, NSET=DISP_BOT_R_NODES
169, 170, 171, 172, 173, 174, 175, 176, 177, 178, 179, 180, 181, 182, 183, 184, 185, 186, 187, 188, 189, 190, 191, 192, 193, 194, 195, 196, 197, 198, 199, 200, 201, 202, 203, 204, 205, 206, 207, 208, 209, 210, 211, 212, 213, 214, 215, 216, 217, 218, 219, 220, 221, 222, 223, 224, 225, 226, 227, 228, 229, 230, 231, 232, 233, 234, 235, 236, 237, 238, 239, 240, 241
*SURFACE, NAME=DISPLAY_BOT_R, TYPE=NODE
DISP_BOT_R_NODES,
*NSET, NSET=PLATE_L_TOP_NODES
10123, 10124, 10125, 10126, 10127, 10128, 10129, 10130, 10131, 10132, 10133, 10134, 10135, 10136, 10137, 10138, 10139, 10140, 10141, 10142, 10143, 10144, 10145, 10146, 10147, 10148, 10149, 10150, 10151, 10152, 10153, 10154, 10155, 10156, 10157, 10158, 10159, 10160, 10161, 10162, 10163, 10164, 10165, 10166, 10167, 10168, 10169, 10170, 10171, 10172, 10173, 10174, 10175, 10176, 10177, 10178, 10179, 10180, 10181, 10182, 10183
*SURFACE, NAME=PLATE_L_TOP, TYPE=NODE
PLATE_L_TOP_NODES,
*NSET, NSET=PLATE_R_TOP_NODES
10307, 10308, 10309, 10310, 10311, 10312, 10313, 10314, 10315, 10316, 10317, 10318, 10319, 10320, 10321, 10322, 10323, 10324, 10325, 10326, 10327, 10328, 10329, 10330, 10331, 10332, 10333, 10334, 10335, 10336, 10337, 10338, 10339, 10340, 10341, 10342, 10343, 10344, 10345, 10346, 10347, 10348, 10349, 10350, 10351, 10352, 10353, 10354, 10355, 10356, 10357, 10358, 10359, 10360, 10361, 10362, 10363, 10364, 10365, 10366, 10367
*SURFACE, NAME=PLATE_R_TOP, TYPE=NODE
PLATE_R_TOP_NODES,
*NSET, NSET=PLATE_L_SLAVES
10001, 10002, 10003, 10004, 10005, 10006, 10007, 10008, 10009, 10010, 10011, 10012, 10013, 10014, 10015, 10016, 10017, 10018, 10019, 10020, 10021, 10022, 10023, 10024, 10025, 10026, 10027, 10028, 10029, 10030, 10031, 10032, 10033, 10034, 10035, 10036, 10037, 10038, 10039, 10040, 10041, 10042, 10043, 10044, 10045, 10046, 10047, 10048, 10049, 10050, 10051, 10052, 10053, 10054, 10055, 10056, 10057, 10058, 10059, 10060, 10061, 10062, 10063, 10064, 10065, 10066, 10067, 10068, 10069, 10070, 10071, 10072, 10073, 10074, 10075, 10076, 10077, 10078, 10079, 10080, 10081, 10082, 10083, 10084, 10085, 10086, 10087, 10088, 10089, 10090, 10091, 10092, 10093, 10094, 10095, 10096, 10097, 10098, 10099, 10100, 10101, 10102, 10103, 10104, 10105, 10106, 10107, 10108, 10109, 10110, 10111, 10112, 10113, 10114, 10115, 10116, 10117, 10118, 10119, 10120, 10121, 10122, 10123, 10124, 10125, 10126, 10127, 10128, 10129, 10130, 10131, 10132, 10133, 10134, 10135, 10136, 10137, 10138, 10139, 10140, 10141, 10142, 10143, 10144, 10145, 10146, 10147, 10148, 10149, 10150, 10151, 10152, 10153, 10154, 10155, 10156, 10157, 10158, 10159, 10160, 10161, 10162, 10163, 10164, 10165, 10166, 10167, 10168, 10169, 10170, 10171, 10172, 10173, 10174, 10175, 10176, 10177, 10178, 10179, 10180, 10181, 10182, 10183
*NSET, NSET=PLATE_R_SLAVES
10185, 10186, 10187, 10188, 10189, 10190, 10191, 10192, 10193, 10194, 10195, 10196, 10197, 10198, 10199, 10200, 10201, 10202, 10203, 10204, 10205, 10206, 10207, 10208, 10209, 10210, 10211, 10212, 10213, 10214, 10215, 10216, 10217, 10218, 10219, 10220, 10221, 10222, 10223, 10224, 10225, 10226, 10227, 10228, 10229, 10230, 10231, 10232, 10233, 10234, 10235, 10236, 10237, 10238, 10239, 10240, 10241, 10242, 10243, 10244, 10245, 10246, 10247, 10248, 10249, 10250, 10251, 10252, 10253, 10254, 10255, 10256, 10257, 10258, 10259, 10260, 10261, 10262, 10263, 10264, 10265, 10266, 10267, 10268, 10269, 10270, 10271, 10272, 10273, 10274, 10275, 10276, 10277, 10278, 10279, 10280, 10281, 10282, 10283, 10284, 10285, 10286, 10287, 10288, 10289, 10290, 10291, 10292, 10293, 10294, 10295, 10296, 10297, 10298, 10299, 10300, 10301, 10302, 10303, 10304, 10305, 10306, 10307, 10308, 10309, 10310, 10311, 10312, 10313, 10314, 10315, 10316, 10317, 10318, 10319, 10320, 10321, 10322, 10323, 10324, 10325, 10326, 10327, 10328, 10329, 10330, 10331, 10332, 10333, 10334, 10335, 10336, 10337, 10338, 10339, 10340, 10341, 10342, 10343, 10344, 10345, 10346, 10347, 10348, 10349, 10350, 10351, 10352, 10353, 10354, 10355, 10356, 10357, 10358, 10359, 10360, 10361, 10362, 10363, 10364, 10365, 10366, 10367
**
*RIGID BODY, NSET=PLATE_L_SLAVES, REF NODE=10000
*RIGID BODY, NSET=PLATE_R_SLAVES, REF NODE=10184
*TIE, NAME=TIE_LEFT
DISPLAY_BOT_L, PLATE_L_TOP
*TIE, NAME=TIE_RIGHT
DISPLAY_BOT_R, PLATE_R_TOP
**
*STEP
*STATIC
0.005, 1.0, 1e-05, 0.1
**
*BOUNDARY
10000, 1, 2, 0.0
10184, 1, 2, 0.0
**
*BOUNDARY
10000, 6, 6, -1.570796
10184, 6, 6, 1.570796
**
*END STEP